BoronNitride                            
   1.0000000000000000     
    17.3520000000000003    0.0000000000000000    0.0000000000000000
     0.0000000000000000   15.0272728064999992    0.0000000000000000
     0.0000000000000000    0.0000000000000000   10.6393173196999999
   B    N    Al   C 
    47    48   128     1
Direct
  0.9954051890329149  0.0008407544700908  0.9981519494639066
  0.9969855034992402  0.1693564787118807  0.9937312559213785
  0.9946701613978249  0.3375598295419621  0.0192933061438734
  0.9955013678952839  0.5020287940156144  0.9949357591326953
  0.9958239800679641  0.6681687969872755  0.9970738053907064
  0.9946404759597570  0.8345912786901731  0.9928755496728693
  0.1185175275082108  0.0856233402477527  0.0016062317318295
  0.1209940740214023  0.2534962802079048  0.0023080032309781
  0.1214770362001165  0.4205467375708550  0.9991991211103515
  0.1197341080260725  0.5853369137033945  0.0173196150496666
  0.1206124441926027  0.7504811722129239  0.0051334428406107
  0.1197850110094118  0.9182000466865914  0.9928695794196383
  0.2469830254370138  0.0006391974215303  0.9719021263909631
  0.2464900161999299  0.1695972883007737  0.0215788185796360
  0.2454289752554660  0.3380700371242879  0.9590916105918977
  0.2449869470759469  0.5009710320835962  0.0217243985405408
  0.2464570527842979  0.6694555090598348  0.0551959684675721
  0.2456195521471120  0.8342271679948786  0.9812626195521038
  0.3729722866307277  0.0846949076027117  0.0047639630316987
  0.3736713059104160  0.2523096086419444  0.9923041495202197
  0.3733827041731236  0.4186287874256726  0.0024045060825270
  0.3735297364802257  0.5812225868192181  0.0061765641592010
  0.3727960217883112  0.7537499396588460  0.0043209817333697
  0.3700868972513094  0.9178499796276822  0.0131030650397512
  0.4965593170983686  0.0025600654686966  0.0094436563892303
  0.4979819667053111  0.1697034905249610  0.0135956548717380
  0.4976522506082344  0.3362715254074896  0.0004178918630913
  0.4965610982216867  0.6664920532474099  0.0360429935528567
  0.4942253896596166  0.8344371024152178  0.0057684236150521
  0.6210855491486468  0.0861244146032732  0.0228401172429999
  0.6214625654056227  0.2530593195283436  0.0072040712058219
  0.6189587234847194  0.4191334320308112  0.9889447532120479
  0.6194197791548026  0.5831126854609852  0.9939960937517125
  0.6204608872628138  0.7505758312480203  0.9556255410009971
  0.6189334978759646  0.9159209014202198  0.0253325528225656
  0.7462651497844507  0.0016118794343985  0.0159359891804759
  0.7449459014628085  0.1709499695190586  0.0333278470563587
  0.7435590741621048  0.3350575124714926  0.9857538331874319
  0.7450995653441854  0.5015483453912312  0.9767226898320437
  0.7446438945579861  0.6669339129175785  0.0004150289494741
  0.7456514241678500  0.8340971510860604  0.9966137984851867
  0.8707011529433081  0.0837117935534510  0.0252237398156397
  0.8706666969177715  0.2503271573691003  0.9920745191577612
  0.8713089778920270  0.4190242757466319  0.9765913866649869
  0.8722021342739559  0.5846426448074872  0.9873883583240862
  0.8721195790918158  0.7520689889769709  0.0016226110646956
  0.8719601688524892  0.9175216598734708  0.0080463006816848
  0.0779263763918625  0.0018762980341657  0.9985183322418697
  0.0799118148726615  0.1700680412812841  0.0061853304600780
  0.0793096724567742  0.3364383907900312  0.9810427598914724
  0.0783161339310339  0.5019456010271074  0.0098369063601309
  0.0790388860306779  0.6688374919996004  0.0141820605865030
  0.0781831671397914  0.8337385768555253  0.9923740257559597
  0.2035938439977284  0.0874519941532205  0.9841299260079418
  0.2051081309112732  0.2545072937820220  0.0113964153100052
  0.2040362936025258  0.4205759603119624  0.9989754214853642
  0.2038616472388234  0.5849190365697297  0.0348396873994591
  0.2014901864071716  0.7548948515038088  0.0376240346562896
  0.2035494793330991  0.9197363921784554  0.0060116109450223
  0.3295904621018341  0.0028194129012574  0.0016750728658929
  0.3313856732395076  0.1690660923445762  0.0027445743341095
  0.3329873798601180  0.3370026677214301  0.9768696389013375
  0.3302959827847644  0.5000162651123506  0.0216936825685057
  0.3297485328845093  0.6681596438314142  0.0079177873101506
  0.3300585950340083  0.8353583018366022  0.0149756304686353
  0.4552321665380805  0.0869634983757960  0.0066132504993784
  0.4566498230272665  0.2530629657704299  0.0006079823441835
  0.4557535227002856  0.4196978142065218  0.9940369922972778
  0.4570715595439417  0.5812184530531606  0.9878174087926815
  0.4550139348237796  0.7508588133188282  0.0091669998201742
  0.4537002523719359  0.9194454644155631  0.0102732253233371
  0.5789007881081232  0.0027982438233112  0.0171738997085658
  0.5803143187336035  0.1689067739680638  0.0180267344687951
  0.5802431470572706  0.3360362931459162  0.0010628900187270
  0.5769086180541076  0.5011023833743575  0.9970290392169734
  0.5822968611417548  0.6685808631906819  0.0138600669743278
  0.5763085810498433  0.8348751172658179  0.9779336216162321
  0.7042771537725736  0.0846842913153146  0.0202549947168124
  0.7039606227094427  0.2536366895436784  0.0078440367218967
  0.7025677382895733  0.4196173781485459  0.9720999416782250
  0.7028458427403572  0.5839307460368588  0.9841137507162667
  0.7035585720683657  0.7520763978275021  0.0083506469372261
  0.7035395498058674  0.9187458838428764  0.9911148741708384
  0.8295824339833430  0.0000288566270386  0.0164187313552994
  0.8292210964763490  0.1667397829863466  0.9891890444234060
  0.8280954086134746  0.3357966896036156  0.9947243233212698
  0.8288676204849172  0.5022702167854357  0.9789931914989626
  0.8288149583408646  0.6685936982073402  0.9792619564689619
  0.8296300999895054  0.8344063513394357  0.0069203014107100
  0.9555659012147431  0.0845378777543341  0.0144005078112593
  0.9524889337849559  0.2511782196106609  0.9939392846401518
  0.9544945957386264  0.4197672342577002  0.9802354902554864
  0.9546204106696441  0.5856969121008031  0.9898420133508095
  0.9538840151666682  0.7519936269786600  0.9975986042069228
  0.9540541543951521  0.9175675265130911  0.9945897069974173
  0.0594552783467326  0.0329310298045899  0.7198263414078013
  0.1091022816293441  0.3528287123098531  0.2976827403252326
  0.5676902189877102  0.2524343960349785  0.7272737114304683
  0.6145611657426147  0.8757027362916937  0.2371091783968926
  0.7247805252859595  0.2593629559001072  0.7234516901984798
  0.9900839698655787  0.2035800468040102  0.7496451660948160
  0.5656923009166510  0.7429703233410480  0.3860655284889917
  0.4185873226097904  0.1968381096681698  0.7062375510928914
  0.9208570661257365  0.0643172832625556  0.6822273273523166
  0.7828336152200913  0.1520482590214003  0.2583170280217661
  0.4582529421800881  0.5842611538902446  0.7928435287067007
  0.1116552515983249  0.7584573350375216  0.4961305564625252
  0.8997362268286366  0.5407728145343961  0.7015169352840904
  0.2071917406685471  0.5892343816299074  0.2458406201694209
  0.4780184149699140  0.6495697032966162  0.2363435271664772
  0.7990513364814104  0.4031072147152914  0.6594532380710990
  0.6347101758218353  0.3752178315717823  0.2778382526217640
  0.6837896803240890  0.9209834375548301  0.7981928720074226
  0.9640751917175036  0.7891456361361738  0.4632455596857834
  0.1570852194817556  0.3846416380788660  0.5302147426777840
  0.4038418299022148  0.7847431355408808  0.7378792015902519
  0.1713539906464873  0.9320715538375811  0.6515038697934989
  0.6515160388066312  0.4073281803127069  0.7237681890298830
  0.0741162437509178  0.6660567902496173  0.2826466151988198
  0.7974768275724611  0.8278189307988688  0.7099756143415157
  0.4937444094319867  0.5838787245206499  0.4616724957999455
  0.7346504597409360  0.5539369578310025  0.6899055356013164
  0.3618569528301624  0.1889651815011734  0.2052503262286210
  0.3075038371903306  0.3248256692994834  0.5393562036940374
  0.4448605767900892  0.0574548298913383  0.5529518614836125
  0.4985439398024477  0.4113136066429148  0.7233818710553022
  0.5010340154045251  0.2935054186791139  0.2638021555429728
  0.9447296618632359  0.9432168072170338  0.3091196319556562
  0.7254938509459042  0.8078201953713515  0.3595795569672713
  0.3202974627828569  0.4981813671941539  0.7548739129420824
  0.4106735370237758  0.7346069102659732  0.4322131954061244
  0.8609088048894697  0.0652067802871408  0.4530474047025617
  0.4763918951769974  0.2696061501653123  0.5085666621307836
  0.3644471189745214  0.3398893530210937  0.7793152322464247
  0.5190667567904140  0.7106418864400912  0.6247302290671284
  0.8165072221158811  0.3291191740610271  0.2095071320180216
  0.4932598175374205  0.1264364325255240  0.3134700306316167
  0.4496930539546009  0.9459302162820169  0.7734383961076994
  0.9462559184574498  0.7269222828387825  0.7060084939425982
  0.8171302885403650  0.6727225129444654  0.7894482986126956
  0.9017027897617717  0.2327744788795430  0.3748297706557693
  0.8171760475467534  0.1450479604882601  0.8056012500620611
  0.5340697350566952  0.9722959474006986  0.3877092969882932
  0.6458983596374779  0.8167652994755636  0.5681279138072958
  0.1642996843623457  0.4970876081196831  0.7389271757168139
  0.7902970013366162  0.9985734479220455  0.6754492644768794
  0.6465060803667987  0.7091640945354422  0.1723487988384138
  0.4644289717327759  0.8467871687986145  0.2603077054769571
  0.3093012667688960  0.6629499702710552  0.8189893236881124
  0.5249037544345285  0.0897916562347973  0.7733299259104054
  0.3184282844182948  0.8547392656568008  0.3229084143702328
  0.7373565906031955  0.1527933954487796  0.5117802082424471
  0.3593901665952899  0.5406825554611672  0.3281777229207510
  0.6975680715433840  0.9713631057993235  0.4856987529770627
  0.5569733511259726  0.8259573946524359  0.7899049725987342
  0.6541630533231467  0.0420447885801752  0.2696811559553156
  0.1915546291839162  0.0761225579704139  0.7959111288010512
  0.9375015013261853  0.1006491185248508  0.2254594751690998
  0.9752467949424855  0.6174794024707352  0.5107982380883992
  0.0617345958030922  0.8424469514650349  0.2733623291206734
  0.6872256533602608  0.4674707622651077  0.4860640098167295
  0.2272654113366509  0.2751205745792401  0.1989661523995164
  0.5840818293108222  0.5569082592135663  0.6672350212630741
  0.6847129988885584  0.6523692497520711  0.4960422811614801
  0.2776099111475266  0.1557262733789019  0.6480736556767003
  0.8307469732612472  0.7158523007341903  0.5123053656601309
  0.0542617864145057  0.6157135851310209  0.7346773434791585
  0.3688975458783614  0.6259903342595268  0.5959305144294199
  0.0420984632761620  0.9370264927613265  0.5060135993752392
  0.3504299061956186  0.1724209401724704  0.4425683518355934
  0.2389977539171389  0.8151530198688701  0.7833500733026481
  0.7433748415316382  0.4805458243695525  0.2520522804251472
  0.0649435030320541  0.1905258291551712  0.2808361019167060
  0.1276624649965722  0.2007373441933616  0.6565548703494006
  0.6705695278503114  0.0963503938510417  0.7375880916860249
  0.0277775778438782  0.4992071324195729  0.3332805582531783
  0.7765300237568988  0.6504822214666037  0.2728584927160103
  0.9353141534043400  0.3706875993705873  0.7387419882492138
  0.2223898586766418  0.3223422991467316  0.7432451904360853
  0.7722075064166593  0.3261301284246535  0.4381127575876366
  0.1798539251712238  0.8979563572705943  0.4144138386317958
  0.3657332590636697  0.3544024191293736  0.3060700542991591
  0.6662828770982493  0.7085864778133768  0.7511292072303605
  0.5437980645047716  0.4245608860841714  0.4708486894181924
  0.6390164570842656  0.2058261565976559  0.3060821326270047
  0.5737811595567545  0.9607723297284899  0.6347312140493638
  0.9708195411184116  0.3431832365815191  0.2309915919707076
  0.8673017658714266  0.2399097229313668  0.6123333495288249
  0.9127690063140164  0.4029118652804178  0.4715473930959505
  0.0274690973753472  0.2900466987242741  0.5074931600209164
  0.1958372805971101  0.2292328708057192  0.4385514474419155
  0.2961617640457630  0.8306663307336146  0.5667495159599591
  0.3108509178198259  0.9820885892682399  0.7410703340179763
  0.5869481607833557  0.1220408050528879  0.5226911349153962
  0.2553070374736462  0.6848680110735027  0.4498833029802812
  0.8443712075726832  0.8931219325113106  0.4923282527023612
  0.1920450670930612  0.6699366235909068  0.6749997903943556
  0.8634561951991514  0.8039888611403608  0.2655168114798570
  0.8254566826222263  0.5430504435180765  0.4709983406451586
  0.0818007433355225  0.8044769479914267  0.7291284568842176
  0.6147372042816377  0.5646550274991685  0.3047515375826051
  0.4046627940701801  0.4481668037033442  0.5412410528389816
  0.3313215553226495  0.6924044686240057  0.2270726999869460
  0.9464223879682070  0.8988524550153728  0.7004487207140948
  0.3746618234301670  0.0169689645055403  0.2739601426770963
  0.1268482195504760  0.5719423720971741  0.4883570829663527
  0.2158390598175466  0.9450153054498770  0.1937941665789907
  0.7910616923005126  0.9641243104044663  0.2729640236926431
  0.0831897339636261  0.0162352908979444  0.2755434102767257
  0.2278815580731171  0.1073712250234351  0.2664165751049862
  0.8861040894270540  0.4879900393844138  0.2522390647953278
  0.0301779817493924  0.4626293317782150  0.6057996973129040
  0.0794845512374751  0.3448774259683450  0.7773302120841260
  0.2341196825435603  0.4312576190945090  0.3178847058353946
  0.9297698378585327  0.6484507879531149  0.2845840307829764
  0.3016348999684264  0.9993007765279228  0.4889196002198170
  0.1585506896855365  0.0672398584732648  0.4907544964779546
  0.1975119423781355  0.7624890124751795  0.2304932093140106
  0.6365927835174208  0.2925115521521851  0.5183948992135546
  0.0064735582658325  0.1162097075244210  0.4930512430988956
  0.4426013717387165  0.8850906301082754  0.5303556591955099
  0.2637291039459069  0.5126271735971960  0.5279462408422939
  0.4887042775031336  0.4725400601395843  0.2302803866563175
  0.4968948006776465  0.4994528566461077  0.0342484556803550

 -0.10983906E-02 -0.34556133E-02  0.52332099E-02
  0.14890691E-02 -0.45217562E-03 -0.24258890E-04
 -0.30200214E-02  0.33173302E-03  0.69245612E-02
 -0.63617210E-03 -0.18651723E-02 -0.66075727E-02
  0.32288672E-02  0.26683576E-02 -0.18419748E-02
 -0.20772928E-04 -0.65202430E-03  0.51660590E-02
 -0.80555419E-03 -0.13795486E-02  0.15005172E-02
  0.11511764E-03 -0.27585341E-03  0.58716741E-02
  0.21851461E-02 -0.26941675E-02 -0.44617472E-03
  0.32534354E-02  0.14921704E-02 -0.94828468E-03
  0.32651550E-02  0.10670944E-02  0.14564991E-03
 -0.23165359E-03 -0.31636516E-02 -0.46244721E-02
  0.36877868E-03 -0.30003800E-02  0.81329880E-02
  0.24220025E-02  0.56887204E-03 -0.36512100E-02
  0.41995590E-03  0.23981346E-02  0.28588680E-02
  0.16736225E-02  0.78119049E-04  0.50506581E-02
  0.35449022E-02 -0.39817646E-03 -0.50335402E-02
 -0.24058509E-03  0.11372473E-02 -0.25977881E-02
 -0.19647877E-02 -0.13824005E-02 -0.26487158E-02
 -0.22063875E-02  0.14248817E-03  0.83931489E-02
 -0.40069663E-04  0.21077494E-04  0.30659460E-02
  0.27395819E-02 -0.40431474E-02  0.85609207E-02
  0.28682483E-03 -0.18145343E-02 -0.67129148E-02
 -0.22838322E-02 -0.28589085E-05  0.13898539E-02
 -0.46864737E-03  0.41294237E-03 -0.12228717E-01
 -0.16960006E-02 -0.22598494E-02  0.26108321E-02
 -0.11929769E-02  0.94480768E-03  0.13165642E-01
 -0.61514401E-03 -0.39286087E-02  0.95355841E-02
 -0.12494904E-02 -0.14805586E-02  0.47994003E-02
  0.26903637E-02 -0.47174157E-02  0.16781727E-02
  0.28777408E-02 -0.36454685E-03 -0.25016961E-02
  0.60032346E-02  0.61926319E-02  0.46453671E-02
  0.43291247E-02 -0.42221360E-03  0.24644807E-02
  0.87653208E-03  0.10553372E-02  0.47086999E-02
  0.10388528E-02  0.22507891E-03 -0.77816340E-02
  0.17896837E-02 -0.31341372E-02 -0.33571708E-02
  0.18397767E-03 -0.22680587E-02 -0.10858097E-01
  0.48281359E-02  0.64620685E-02 -0.29755063E-02
  0.22437729E-02  0.22938233E-02  0.16985622E-02
  0.11435756E-02 -0.15496754E-02  0.13785570E-02
  0.12489619E-02 -0.16916440E-03 -0.11534239E-01
 -0.84557274E-03 -0.31702818E-02 -0.14741647E-01
 -0.10877914E-02  0.23367100E-05 -0.67409228E-02
 -0.64844641E-03  0.33718266E-03 -0.79387556E-02
 -0.44468677E-02 -0.10053015E-02  0.41500206E-02
 -0.13002860E-02 -0.18187195E-03  0.32690247E-04
  0.26823637E-02 -0.28755271E-02 -0.73581381E-03
 -0.12273867E-02 -0.23825417E-02  0.73894452E-02
  0.15744764E-02 -0.10365978E-03  0.44252601E-02
  0.48355328E-03  0.35648569E-03  0.11392018E-02
 -0.11572904E-02  0.71133498E-03 -0.41505172E-02
 -0.70569327E-03 -0.31273834E-04  0.93632758E-02
 -0.21071461E-02 -0.35834970E-02  0.67736149E-02
 -0.77765911E-03 -0.10585301E-02 -0.37781580E-02
 -0.37176764E-03 -0.80459796E-03  0.13064367E-02
 -0.26470927E-02 -0.10438626E-02  0.41989161E-02
  0.32862862E-03  0.16014289E-02 -0.61293015E-03
 -0.82436479E-03  0.53828555E-03  0.33670353E-02
  0.10464988E-02 -0.33888300E-02 -0.60866925E-02
 -0.16582718E-02 -0.79493954E-03  0.74046336E-02
  0.15538909E-02 -0.17596767E-02 -0.32313791E-02
  0.29214171E-02 -0.40490368E-03 -0.62046106E-02
  0.21323779E-02 -0.36524956E-02  0.45208281E-02
  0.66157771E-03 -0.16373978E-02 -0.13665285E-02
 -0.47338143E-04 -0.36789442E-02  0.33400341E-02
  0.21672803E-02  0.17319561E-02 -0.85768183E-02
  0.48323039E-02 -0.53081217E-03  0.83415601E-02
  0.28293892E-02 -0.24154482E-02  0.14537678E-02
  0.27058317E-02  0.18515283E-02  0.36073748E-02
  0.18112562E-02 -0.27883348E-02  0.87207396E-02
 -0.17132691E-02 -0.20345635E-03 -0.11913607E-01
  0.17070317E-02  0.79401356E-03 -0.49426978E-02
  0.39820935E-02  0.48250291E-03 -0.11160916E-02
  0.31173763E-02 -0.85443651E-03  0.77888647E-02
  0.10826918E-02 -0.20186743E-02  0.38768521E-02
  0.11644414E-02 -0.20630524E-02  0.84486021E-02
 -0.13247225E-03 -0.25275699E-02  0.36662145E-02
 -0.44418799E-03 -0.49149247E-03 -0.67703947E-02
 -0.27546500E-03 -0.16358434E-02 -0.43329195E-02
 -0.12957137E-02 -0.26440970E-02 -0.18625454E-02
  0.11436666E-02  0.10320350E-02  0.17721016E-02
  0.15028694E-02 -0.14697854E-02  0.16410091E-02
 -0.17547093E-02  0.56491271E-03 -0.30853368E-02
  0.11559937E-02 -0.25481212E-02 -0.26838432E-02
  0.20791251E-02 -0.14965498E-02 -0.50503826E-02
  0.17816855E-02 -0.20890547E-02 -0.50591469E-02
  0.48292124E-02  0.33462704E-03  0.42726314E-02
  0.17982551E-02  0.44284596E-03 -0.96614061E-02
  0.74251545E-03 -0.28933730E-02 -0.60853504E-02
  0.20145056E-02 -0.19451697E-02  0.11262433E-01
 -0.14804834E-02 -0.21239033E-02 -0.63667348E-02
  0.29249973E-02  0.12572252E-02 -0.70148707E-02
  0.45884024E-02  0.15181783E-03 -0.95676143E-02
  0.34441253E-02 -0.32168306E-02  0.44622418E-02
  0.43606309E-02 -0.16191598E-02 -0.91833198E-03
 -0.33599907E-03  0.22518460E-02 -0.20807479E-03
  0.73809733E-02  0.28412707E-02 -0.60781566E-02
 -0.40331986E-02  0.39541006E-02 -0.32575282E-02
  0.25278609E-02  0.14013891E-02  0.44209361E-02
 -0.55577111E-03 -0.17635779E-03 -0.72209603E-02
 -0.67973804E-02  0.52409000E-02  0.43240937E-02
 -0.69721795E-02  0.64540041E-02  0.96851651E-02
  0.41561216E-02  0.38362019E-03  0.42787038E-02
 -0.18958752E-02  0.18201604E-02  0.11477707E-02
  0.24366605E-02  0.18570092E-02  0.27805225E-03
  0.16205200E-02  0.29266869E-02  0.33985893E-02
 -0.26815378E-02  0.13549634E-01  0.99688844E-04
  0.17976324E-02  0.25397130E-02  0.60826320E-03
 -0.50767519E-02 -0.42971814E-02 -0.10919542E-02
  0.43234627E-03  0.35136324E-02  0.13411250E-02
 -0.17679636E-02 -0.40285582E-02  0.11788145E-02
 -0.80032021E-02  0.97859159E-02 -0.31687891E-02
 -0.84133199E-02  0.17565679E-03 -0.17165671E-02
 -0.74651712E-02  0.25238910E-02  0.18679788E-02
  0.16768622E-02  0.24929310E-02 -0.84938565E-03
  0.89473002E-02  0.31966927E-03 -0.82296466E-02
 -0.46931187E-02 -0.38737287E-02  0.54537355E-02
  0.21648052E-02 -0.32381566E-03  0.51478254E-02
 -0.47390232E-02 -0.72398798E-03 -0.13125037E-03
  0.33263481E-02  0.23981555E-02  0.27323874E-02
  0.19781025E-02  0.85156988E-03  0.32218076E-03
 -0.81921001E-03 -0.38511887E-02 -0.82684467E-03
 -0.22007092E-03  0.22856879E-02 -0.60320412E-02
  0.13443609E-02  0.58720071E-02 -0.30622137E-02
 -0.17507769E-02 -0.30323782E-02 -0.10918524E-03
 -0.19455721E-03  0.31650394E-02  0.62225989E-03
 -0.71206806E-03 -0.80228336E-02 -0.33605583E-02
 -0.51433953E-03  0.96654433E-03  0.38565505E-02
 -0.48465279E-02 -0.20747661E-02 -0.63157560E-05
 -0.93802265E-02 -0.10048308E-02 -0.32468436E-02
 -0.98266808E-02  0.96558407E-03 -0.26231576E-02
 -0.25077371E-02 -0.54039404E-02 -0.41378452E-03
 -0.67979839E-02  0.32928806E-02  0.37095887E-02
  0.21112937E-02 -0.15080068E-03 -0.41610035E-02
  0.71312573E-02  0.52137103E-02  0.14699833E-02
  0.29234983E-02  0.28213891E-02  0.23341075E-02
 -0.70477783E-02 -0.26372668E-02  0.65124287E-02
  0.56352135E-03  0.21070239E-02  0.88959422E-03
  0.16402732E-02 -0.35141333E-02 -0.81209755E-02
 -0.22412951E-02  0.20509622E-02  0.29539048E-02
  0.46112924E-03  0.56059161E-03  0.30260606E-02
 -0.41174912E-02  0.93501951E-03 -0.52567393E-02
  0.23347231E-02  0.31486094E-02  0.49332255E-02
  0.57582220E-02  0.62891006E-02  0.32983740E-02
 -0.88176624E-02  0.31387711E-02  0.65794422E-02
 -0.41343879E-02 -0.13432537E-02 -0.42958233E-03
 -0.18829543E-03  0.13892770E-02  0.31959899E-03
  0.10191219E-01 -0.21589428E-02  0.62840520E-03
  0.19471009E-02 -0.15678920E-02 -0.11415848E-02
  0.53216567E-03 -0.57390417E-03  0.56705904E-02
  0.38840346E-03  0.11235701E-02  0.50038669E-02
 -0.33562075E-03 -0.45717487E-02 -0.43012191E-02
  0.50571021E-02  0.51869081E-02 -0.82507452E-02
  0.25993450E-02  0.78756983E-02  0.25229149E-02
 -0.13591097E-02  0.35608082E-02  0.81607044E-02
  0.37577460E-02  0.44089489E-02  0.28273282E-02
  0.13100341E-03  0.33658677E-02 -0.16403136E-02
  0.88063877E-02 -0.22381166E-03 -0.34029904E-02
  0.37441359E-02  0.65010082E-03 -0.67835424E-02
 -0.79010712E-02  0.12101964E-02  0.40977643E-02
  0.88723244E-03 -0.13324584E-01 -0.10599294E-02
  0.32705412E-02 -0.36466752E-02  0.21562555E-02
 -0.28226583E-02 -0.17979610E-02  0.13466470E-02
 -0.59858095E-02 -0.37336859E-03  0.55228063E-02
  0.20656602E-03  0.20274287E-02 -0.34957345E-02
  0.23070207E-02 -0.24024432E-02 -0.14382220E-01
  0.22673613E-02  0.91317712E-02 -0.53935182E-02
  0.32081924E-02  0.34512024E-02 -0.53038883E-03
 -0.34820512E-03  0.12496186E-02 -0.77736807E-03
 -0.35835026E-02  0.65903380E-02 -0.16320731E-02
  0.85210512E-02 -0.37731121E-02 -0.17987534E-02
  0.57178577E-02 -0.20031538E-02 -0.10430870E-03
 -0.19603869E-02  0.34506954E-02 -0.47554068E-02
 -0.47484831E-02  0.32589710E-02  0.57999762E-02
 -0.34979658E-02  0.38327286E-02 -0.85058159E-02
  0.14768855E-02  0.19137599E-02 -0.10614419E-02
  0.70522566E-03  0.21538059E-02 -0.65690030E-02
  0.16318189E-02  0.55811143E-02 -0.33038003E-02
  0.26754774E-02 -0.11958304E-02 -0.36590211E-02
 -0.52513040E-02 -0.70510406E-02 -0.13127585E-02
 -0.54645542E-02  0.15377370E-02 -0.18798170E-02
  0.40598352E-02  0.12569310E-02 -0.22186469E-02
 -0.42976038E-02  0.13990159E-02 -0.10065048E-03
 -0.23882980E-02 -0.36385461E-02  0.10229084E-03
  0.59132904E-02  0.51347484E-02 -0.42321754E-02
 -0.21815691E-02  0.38549683E-02  0.17444926E-02
  0.32576925E-02  0.12571707E-02  0.36498186E-02
 -0.45062597E-03  0.19299530E-02  0.63089381E-03
 -0.28081659E-02 -0.40855514E-02 -0.32389439E-02
  0.50029870E-02 -0.76259143E-03 -0.23929815E-02
 -0.41241809E-02 -0.62607788E-03  0.10089092E-01
  0.51024211E-02 -0.48594242E-02  0.20981786E-02
  0.13647445E-02 -0.44460360E-02 -0.35361051E-02
 -0.45957755E-02  0.41103677E-02  0.11968302E-02
 -0.49802366E-02 -0.38891369E-02  0.38337216E-02
 -0.16634790E-02 -0.20133059E-02 -0.26949393E-02
  0.54000713E-02 -0.16118566E-02 -0.85510966E-02
 -0.39002678E-02  0.24401998E-02 -0.52550736E-02
 -0.53803700E-02 -0.74086295E-02  0.57565386E-02
 -0.19457036E-02 -0.26696156E-02 -0.26896682E-02
  0.35133454E-02 -0.45533633E-02  0.18763618E-02
  0.17322743E-02 -0.33888531E-02  0.50002604E-02
 -0.35690768E-02  0.16760644E-03 -0.53262824E-02
  0.38781879E-02  0.48416472E-02  0.23075950E-02
 -0.15940529E-03  0.11198255E-01  0.14297877E-01
 -0.23245601E-02 -0.12698309E-01  0.30785479E-02
 -0.60361662E-02 -0.22970217E-02 -0.12303502E-03
  0.20139533E-02 -0.46116041E-02  0.52030178E-03
  0.13743626E-02 -0.40594963E-02  0.34243871E-02
  0.54828146E-02 -0.26571199E-03  0.58111575E-02
  0.35177839E-02 -0.47126575E-03  0.92943259E-02
 -0.30867591E-02 -0.49357180E-02 -0.18650482E-02
  0.23018074E-02  0.19945724E-02  0.23555737E-02
  0.58466682E-02 -0.39614224E-02  0.54502978E-02
 -0.11806317E-02 -0.18252413E-02  0.73783788E-03
 -0.51817181E-02 -0.10860378E-01  0.21594532E-02
  0.21383848E-02 -0.20942678E-02  0.38764818E-02
 -0.41752177E-03 -0.86881222E-02  0.20395055E-02
 -0.42620810E-03 -0.75747660E-02 -0.14226547E-02
 -0.64162303E-02  0.44449648E-03 -0.33328308E-02
  0.14293757E-02  0.21433855E-02 -0.93328848E-02
  0.81663564E-02  0.48137698E-02 -0.11998043E-01
 -0.50489332E-02  0.34873406E-02  0.14602647E-03
  0.20467600E-02 -0.90451837E-03  0.42836724E-02

           1
  0.54731196234688684     
  0.11281229E+00 -0.93727980E-02 -0.80241981E-03  0.00000000E+00
  0.99537054E+00  0.71489673E-03  0.99842116E+00
  0.99703247E+00  0.16934001E+00  0.99373001E+00
  0.99457490E+00  0.33757191E+00  0.19649522E-01
  0.99548130E+00  0.50196086E+00  0.99459585E+00
  0.99592582E+00  0.66826598E+00  0.99697905E+00
  0.99463982E+00  0.83456753E+00  0.99314130E+00
  0.11849212E+00  0.85573095E-01  0.16834219E-02
  0.12099771E+00  0.25348623E+00  0.26100562E-02
  0.12154596E+00  0.42044861E+00  0.99917617E+00
  0.11983673E+00  0.58539126E+00  0.17270833E-01
  0.12071543E+00  0.75052004E+00  0.51409354E-02
  0.11977770E+00  0.91808482E+00  0.99263169E+00
  0.24699466E+00  0.52991985E-03  0.97232051E+00
  0.24656641E+00  0.16961801E+00  0.21390992E-01
  0.24544222E+00  0.33815738E+00  0.95923868E+00
  0.24503974E+00  0.50097388E+00  0.21984216E-01
  0.24656887E+00  0.66944101E+00  0.54937031E-01
  0.24561196E+00  0.83426859E+00  0.98112898E+00
  0.37291031E+00  0.84644559E-01  0.46277067E-02
  0.37360171E+00  0.25231480E+00  0.99273591E+00
  0.37338144E+00  0.41862956E+00  0.25622257E-02
  0.37361615E+00  0.58107533E+00  0.66169584E-02
  0.37280507E+00  0.75368385E+00  0.39756533E-02
  0.37001486E+00  0.91784988E+00  0.13174562E-01
  0.49654454E+00  0.25751053E-02  0.88145819E-02
  0.49792847E+00  0.16962118E+00  0.13729962E-01
  0.49761462E+00  0.33630594E+00  0.10951640E-02
  0.49654170E+00  0.66634897E+00  0.36533527E-01
  0.49418598E+00  0.83438318E+00  0.60153163E-02
  0.62117041E+00  0.85952600E-01  0.22926446E-01
  0.62155333E+00  0.25304604E+00  0.70753780E-02
  0.61914808E+00  0.41935898E+00  0.98918372E+00
  0.61955633E+00  0.58309731E+00  0.99412287E+00
  0.62048853E+00  0.75061427E+00  0.95586777E+00
  0.61896627E+00  0.91592910E+00  0.24932247E-01
  0.74632160E+00  0.14977303E-02  0.15763288E-01
  0.74495170E+00  0.17086736E+00  0.32769281E-01
  0.74371136E+00  0.33529287E+00  0.98560077E+00
  0.74517034E+00  0.50163189E+00  0.97681007E+00
  0.74467996E+00  0.66687747E+00  0.48594522E-03
  0.74569082E+00  0.83409099E+00  0.99602045E+00
  0.87067448E+00  0.83596328E-01  0.24465394E-01
  0.87063239E+00  0.25032724E+00  0.99172775E+00
  0.87128852E+00  0.41903656E+00  0.97618300E+00
  0.87206187E+00  0.58460603E+00  0.98760185E+00
  0.87207857E+00  0.75206236E+00  0.16242927E-02
  0.87204478E+00  0.91741693E+00  0.80084487E-02
  0.77887663E-01  0.17895229E-02  0.99889846E+00
  0.79961477E-01  0.17006427E+00  0.64129764E-02
  0.79324925E-01  0.33645137E+00  0.98110136E+00
  0.78279631E-01  0.50197151E+00  0.96233938E-02
  0.79016627E-01  0.66883635E+00  0.14663730E-01
  0.78116704E-01  0.83360806E+00  0.99272248E+00
  0.20356932E+00  0.87413441E-01  0.98393557E+00
  0.20509640E+00  0.25447799E+00  0.11463622E-01
  0.20395280E+00  0.42053794E+00  0.99919142E+00
  0.20387201E+00  0.58497736E+00  0.34808157E-01
  0.20146418E+00  0.75491446E+00  0.37797243E-01
  0.20358249E+00  0.91961297E+00  0.56984969E-02
  0.32953816E+00  0.27904602E-02  0.20559850E-02
  0.33143469E+00  0.16900200E+00  0.25783445E-02
  0.33307953E+00  0.33698792E+00  0.97655046E+00
  0.33036324E+00  0.49988324E+00  0.21926245E-01
  0.32976940E+00  0.66810001E+00  0.78474898E-02
  0.33005710E+00  0.83522431E+00  0.15147450E-01
  0.45530053E+00  0.87026578E-01  0.61720384E-02
  0.45680224E+00  0.25304363E+00  0.10370922E-02
  0.45584277E+00  0.41960984E+00  0.99411178E+00
  0.45715691E+00  0.58128589E+00  0.98800298E+00
  0.45507106E+00  0.75075726E+00  0.96156156E-02
  0.45364621E+00  0.91943805E+00  0.96603608E-02
  0.57895463E+00  0.28271628E-02  0.16919635E-01
  0.58043992E+00  0.16892435E+00  0.17969320E-01
  0.58034147E+00  0.33600517E+00  0.14635679E-02
  0.57694277E+00  0.50102886E+00  0.99722847E+00
  0.58233359E+00  0.66850572E+00  0.14294683E-01
  0.57630440E+00  0.83478306E+00  0.97812222E+00
  0.70426314E+00  0.84666391E-01  0.19906709E-01
  0.70395193E+00  0.25357711E+00  0.76211410E-02
  0.70252687E+00  0.41952108E+00  0.97200413E+00
  0.70288192E+00  0.58396833E+00  0.98420491E+00
  0.70360598E+00  0.75202287E+00  0.84350644E-02
  0.70348420E+00  0.91876646E+00  0.99095616E+00
  0.82961890E+00  0.99993605E+00  0.16280668E-01
  0.82928668E+00  0.16668528E+00  0.98892924E+00
  0.82815161E+00  0.33572060E+00  0.99446407E+00
  0.82901994E+00  0.50228240E+00  0.97921299E+00
  0.82887168E+00  0.66860983E+00  0.97876495E+00
  0.82965352E+00  0.83430097E+00  0.66072564E-02
  0.95562944E+00  0.84467032E-01  0.14979874E-01
  0.95244224E+00  0.25110086E+00  0.99361176E+00
  0.95458686E+00  0.41981302E+00  0.97987463E+00
  0.95476514E+00  0.58570244E+00  0.98934983E+00
  0.95399265E+00  0.75187647E+00  0.99782815E+00
  0.95419170E+00  0.91750855E+00  0.99454247E+00
  0.59444680E-01  0.33013045E-01  0.71981564E+00
  0.10933509E+00  0.35293219E+00  0.29737007E+00
  0.56756300E+00  0.25257841E+00  0.72710614E+00
  0.61464090E+00  0.87575378E+00  0.23733660E+00
  0.72476300E+00  0.25935653E+00  0.72308023E+00