BoronNitride_SiatB                            
   1.00000000000000     
    17.3520000000000003    0.0000000000000000    0.0000000000000000
     0.0000000000000000   15.0272728064999992    0.0000000000000000
     0.0000000000000000    0.0000000000000000   10.6393173196999999
   B    N    Al   Si 
    47    48   128     1
Direct
 -0.0049411898461693  0.0021941391710304 -0.0036145668255490
 -0.0041078126845919  0.1691843766993149 -0.0057748243966882
 -0.0044204432764604  0.3368081127697679  0.0139545891191731
 -0.0046524282559661  0.5021585661901546 -0.0021495249600570
 -0.0049476092034250  0.6682198520149532 -0.0004152386311917
 -0.0051855556756860  0.8358475636802375 -0.0099059904791955
  0.1193441419247342  0.0868199508621278  0.0010916671849984
  0.1213127572384621  0.2530704301327719 -0.0018314018459193
  0.1221660959082656  0.4206116375437887 -0.0012247767455133
  0.1194349061615181  0.5849905444779503  0.0191065142193567
  0.1195755703232401  0.7515438300935050  0.0077992090015525
  0.1201356455674177  0.9196673846996608 -0.0020083421399717
  0.2473892885691605  0.0022487014298991 -0.0335805232048328
  0.2462734804710061  0.1696232247737692  0.0240781629811343
  0.2457581574294082  0.3369735888925747 -0.0437367307832941
  0.2452345261363368  0.5009573257588881  0.0179663067928855
  0.2458730354568277  0.6689575694060877  0.0608398577814273
  0.2454666011626991  0.8343264160742545 -0.0155893571922501
  0.3723477649476798  0.0853603941158402  0.0063880558499981
  0.3727241067729753  0.2522479099472307 -0.0148876818832191
  0.3721088263550124  0.4198086712712060  0.0000250902070251
  0.3715949779992119  0.5833121940417338  0.0008816371725644
  0.3721254484220361  0.7547966884486776  0.0094116835326022
  0.3705693374263098  0.9191341505643951  0.0121161987822384
  0.4970064310055676  0.0031447919196982  0.0174192894656951
  0.4968512072272604  0.1700790024622331  0.0107428675225945
  0.4966173287329240  0.3361836366469051 -0.0091984996482167
  0.4961317868223356  0.6673666527422085  0.0296720651696092
  0.4953582577119839  0.8348715632269900  0.0031865440215709
  0.6203019861184073  0.0860242393371712  0.0204161104301577
  0.6207715381828672  0.2526377849015324  0.0097410450106916
  0.6185920066345861  0.4187170648864667 -0.0149192795759895
  0.6187292558589883  0.5835822024126817 -0.0069210553798447
  0.6203927265494291  0.7507308209199066 -0.0504091948451547
  0.6195939462594540  0.9155254232736911  0.0335987495793575
  0.7452848867851388  0.0025157219375386  0.0178931692264103
  0.7459588887204648  0.1710382620341605  0.0413752680315412
  0.7428523717780025  0.3344672586154138 -0.0128310400880473
  0.7443476115262950  0.5013604133218840 -0.0243851595016980
  0.7439280323272914  0.6671381350952033 -0.0003257045853385
  0.7454694016723039  0.8347989568590453  0.0058343989155923
  0.8707708711394139  0.0859800458079804  0.0356653347388423
  0.8708775248900413  0.2516978763057546 -0.0033895214013572
  0.8702164812128895  0.4193070302270042 -0.0175408131725866
  0.8712385623804270  0.5841631908631217 -0.0177236645762783
  0.8714218137323776  0.7523589695639864  0.0004688491037278
  0.8705365122518455  0.9192149598669644  0.0077279398078541
  0.0782554823955194  0.0028501794849400 -0.0077277839591984
  0.0793846961662422  0.1704984432082233  0.0030540243792724
  0.0799034311107192  0.3366496829140897 -0.0189919200913333
  0.0783664796883918  0.5014966778415683  0.0132158733931484
  0.0785381796180197  0.6686050939717777  0.0055919493237960
  0.0788406287047820  0.8355556494195602 -0.0136988507987685
  0.2038722995875313  0.0882781863551326 -0.0130541173659042
  0.2050006140587976  0.2549006771921853  0.0101732613585324
  0.2049721575408099  0.4199851133963169 -0.0037578213760860
  0.2033092042993519  0.5839159987895577  0.0347000394925562
  0.2015682061478058  0.7534369916362688  0.0330641102303116
  0.2042710795460916  0.9212817769414802  0.0103736108342336
  0.3303627586114972  0.0034346953250849 -0.0036677983644915
  0.3308620994087583  0.1697943165640105  0.0050856940989123
  0.3316949477059607  0.3367297748425168 -0.0179184049144089
  0.3295052448150849  0.5016065449022015  0.0186874777515407
  0.3286339273525841  0.6691627572732265  0.0088040365080265
  0.3298300386986545  0.8367311598463494  0.0119348678737547
  0.4547109370793749  0.0866320441785429  0.0133095379284521
  0.4550307234722050  0.2529464233661461 -0.0042058825787997
  0.4549435557537795  0.4203011834874577 -0.0068043805151016
  0.4564095426062236  0.5817783010320816 -0.0153471002980775
  0.4546256787286911  0.7516607492215491  0.0025350835005515
  0.4543715957650486  0.9195690396851744  0.0185803472575883
  0.5790439453335068  0.0025460756670382  0.0201559603108094
  0.5789716381434590  0.1692167580180162  0.0193386977594698
  0.5792772711097711  0.3356186756445858 -0.0040314773552162
  0.5764119395990264  0.5013234245350172 -0.0061641567965480
  0.5812362373228970  0.6692495193939542  0.0081221174117893
  0.5771982422404899  0.8364964411526944 -0.0243029614903553
  0.7036311212767909  0.0854391045213950  0.0250879823599687
  0.7037514893633149  0.2532477587136256  0.0103702206536838
  0.7024117032140000  0.4190706583785068 -0.0262976353715989
  0.7024887795609507  0.5839568768326140 -0.0169776600125596
  0.7026206813540589  0.7522083106891010  0.0063449237703683
  0.7035471554733490  0.9188926403969541 -0.0072288353196171
  0.8284128281857026  0.0016296648424167  0.0177421147362852
  0.8289525894875562  0.1681935818461907 -0.0077132677018634
  0.8275030355292449  0.3358314756671006 -0.0021778153815216
  0.8277972519499048  0.5018013073578551 -0.0239533534653328
  0.8281309372803990  0.6682981646510464 -0.0122493973901395
  0.8289976603836740  0.8350196794608901  0.0111543732393446
  0.9544443561445741  0.0852192760446163  0.0060426904133619
  0.9530482376525684  0.2520416510462445 -0.0013894956269534
  0.9531993464250270  0.4194510471523432 -0.0143834630822767
  0.9532546240968870  0.5852701368932841 -0.0026676569508551
  0.9537553298671706  0.7525393772282269 -0.0057678216273952
  0.9533131375696736  0.9188393726693223 -0.0046977600988368
  0.0594651405979468  0.0320710572715587  0.7199102894897099
  0.1059875688126501  0.3515034571287955  0.3016777265954786
  0.5693164168119921  0.2505285842058890  0.7295103866616460
  0.6135664664498272  0.8754838530546142  0.2335484320782379
  0.7249315874005939  0.2593744862812382  0.7280965887970240
  0.9928111440103341  0.2011648684143200  0.7469528367247846
  0.5685807233804854  0.7398725012813876  0.3796006696039746
  0.4168693798710517  0.1963197171142972  0.7033301008906888
  0.9215350467623805  0.0635590685530006  0.6815186500654703
  0.7820684480659157  0.1511385109827865  0.2579778634647445
  0.4574330777351476  0.5829174115442713  0.7905557495641917
  0.1127176180078851  0.7515472285119653  0.4959357149934668
  0.8989550066304686  0.5397349905317870  0.7008531908940158
  0.2092571711000636  0.5909785176018209  0.2467269371814058
  0.4779489046734612  0.6480018883597178  0.2360881255369356
  0.7999368492888392  0.4050671413498851  0.6586297198340273
  0.6377506654310449  0.3706283549175051  0.2798765841962299
  0.6875115718221148  0.9209875418950290  0.7989453066767404
  0.9672646211790155  0.7880133292656579  0.4619328772436639
  0.1564506199023591  0.3837324424457442  0.5309811108070859
  0.4001170567334286  0.7844169267159948  0.7434729538734868
  0.1733483878113745  0.9337327047233951  0.6479669519704514
  0.6505097802674711  0.4074917002512348  0.7204820319165010
  0.0761920432279020  0.6665874343943921  0.2829784298127037
  0.7961646119438865  0.8265692234977285  0.7079988916147822
  0.4929297389471803  0.5835769160624810  0.4615512027382380
  0.7350470833729335  0.5559848001504187  0.6905954406660425
  0.3619576700383190  0.1878407493687802  0.2095119417881153
  0.3067996814727021  0.3220616095363432  0.5411860179158425
  0.4452376105313263  0.0591833248043036  0.5531866621509790
  0.4987469877656429  0.4098885288074192  0.7232094671136003
  0.5013802126449445  0.2973107120150182  0.2661786471023603
 -0.0552228553826731  0.9429438053447508  0.3065528949942166
  0.7275495576921307  0.8086914173612052  0.3597206749516095
  0.3240399362012543  0.4987167190052486  0.7567872207880081
  0.4147719631244768  0.7340911082262002  0.4337564479276318
  0.8619655259923857  0.0677930232831360  0.4532590725645561
  0.4791218095010786  0.2681603157873471  0.5058496014880127
  0.3636108182613235  0.3401236859832522  0.7821672720068783
  0.5163005412658285  0.7081242476187612  0.6235662922908067
  0.8154532380421889  0.3277252297655460  0.2077102105637518
  0.4962718023819429  0.1279277546335215  0.3092202825092362
  0.4493442465209775 -0.0551572878710683  0.7727939877181197
 -0.0548119669450256  0.7288553838146440  0.7112267430476058
  0.8180257664040561  0.6716470347590615  0.7868252302664973
  0.9015484399121292  0.2322849756023249  0.3726390167549063
 -0.1812325204173584  0.1445562395632941  0.8085845287650851
  0.5334646434969781 -0.0291589832771750  0.3841338251315019
  0.6436541942168830  0.8139731943265823  0.5660875313933463
  0.1679995658054634  0.4955667737262976  0.7341647154925202
  0.7920902641157725 -0.0007538168678721  0.6759064201242200
  0.6465191371871455  0.7084366443852275  0.1730802238362149
  0.4599944904751134  0.8479077593089538  0.2600314446887921
  0.3087767395715434  0.6637560125731689  0.8195518871856177
  0.5247002685317945  0.0902841625788492  0.7697078876559126
  0.3183817487109851  0.8543795284316466  0.3191494191661833
  0.7374838772322035  0.1549056563460749  0.5145652405452746
  0.3573326363481134  0.5381231393790810  0.3337942789968166
  0.6964053088259724  0.9676727554935702  0.4839086378911367
  0.5575211782615220  0.8241263089803578  0.7842271612664256
  0.6526460152188622  0.0398310866317627  0.2679241751520040
  0.1916770691266160  0.0744925971903802  0.7968071855633884
  0.9339374791172240  0.1007880930707388  0.2277970884014610
 -0.0262648082862433  0.6170217807043069  0.5155276462234533
  0.0650806286027370  0.8414289897780511  0.2705253290850265
  0.6867569318092175  0.4738044360389745  0.4869431365001768
  0.2259341334480146  0.2767104081559950  0.1978267142602245
  0.5852853393099698  0.5576956509433767  0.6663491982979144
  0.6871405340359406  0.6524026991549187  0.4923180004563734
  0.2775736813176468  0.1547467981448274  0.6505435253413424
 -0.1703829554661732  0.7168601564464263  0.5219084021437287
  0.0534945196590455  0.6112888135019060  0.7379410705448347
  0.3676886117043620  0.6241748248548746  0.5966589677190066
  0.0421540160196608 -0.0634870045777842  0.5067007374509065
  0.3518863215845944  0.1690852744364440  0.4435044801650206
  0.2354572806775047  0.8168269534543826  0.7844837619981948
  0.7409946599251445  0.4815343539614310  0.2522065225159543
  0.0658860412098986  0.1888346949346834  0.2840454023141336
  0.1294922558229095  0.1990221000297874  0.6527907129003193
  0.6719660179704045  0.0944948663110148  0.7431437612009733
  0.0272685318736073  0.4980913083013040  0.3338048012972348
  0.7761978363127078  0.6492898782988400  0.2773210013921931
  0.9345940907016452  0.3680636607155618  0.7410979305114094
  0.2212238340369594  0.3230717183944891  0.7458479955515744
  0.7744310747698809  0.3292254187569417  0.4389419289301728
  0.1822791859337145 -0.1027384672324252  0.4157959165551269
  0.3642084346129270  0.3538324300155747  0.3074379085759190
  0.6680517647833895  0.7078363886291247  0.7514221093475720
  0.5448038321939587  0.4262629327267340  0.4707791018450640
  0.6365109638381788  0.2035642752039391  0.3087551690803994
  0.5746428277347484  0.9589169689565062  0.6334885089292036
 -0.0303813523947066  0.3426108763759825  0.2283667605485875
  0.8674729591163353  0.2390527607154845  0.6119088718017569
  0.9139090822939122  0.4046109957312926  0.4738283740362032
  0.0254636527725812  0.2904125153678693  0.5088756606466306
  0.1974389446759940  0.2295072955283156  0.4316510321537010
  0.2939876487358877  0.8328675553078643  0.5652366852787291
  0.3101658400100675 -0.0157727621993532  0.7432714406206932
  0.5887387837960961  0.1201842962493206  0.5216914526779505
  0.2572004338679678  0.6867237772244321  0.4468556202622787
  0.8448647448717280  0.8940266619848335  0.4944872358815863
  0.1898731528408671  0.6707332895205435  0.6806598698023257
  0.8650384981263634  0.8026529990079411  0.2688289071457063
  0.8275593482782473  0.5466266341758937  0.4672004595291225
  0.0826904912605723  0.8056288345863967  0.7311146246438442
  0.6133493046158029  0.5669589064922442  0.3035549343162635
  0.4040152461023413  0.4501716471084110  0.5377202261771675
  0.3327171267777256  0.6923355004668515  0.2307209616426375
  0.9448057522998463  0.8962407863875518  0.6989639076244631
  0.3747034740419830  0.0114767040085069  0.2645936583889184
  0.1278318575466185  0.5782692249025259  0.4863729451362838
  0.2183356451276262 -0.0540530858813649  0.1937071903006538
  0.7901054438591019  0.9663904597715137  0.2724484427256113
  0.0826312468847049  0.0185086092270857  0.2734309581545574
  0.2256767845406466  0.1074349128692959  0.2627420860396752
  0.8847307776816900  0.4882237074289008  0.2459941973628612
  0.0314608010353600  0.4651567924821884  0.6070549115392122
  0.0785428585082196  0.3439409839896524  0.7759990032533280
  0.2319968634447086  0.4332260247034921  0.3140473884541908
  0.9300020430551091  0.6495797863436851  0.2838630401885082
  0.3038102243575483  0.0046560573605671  0.4876376615929234
  0.1575022660296454  0.0683064162335320  0.4884680189759610
  0.1974195561539509  0.7669392055583177  0.2294793798280766
  0.6365188950785015  0.2961802370491545  0.5192738866335439
  0.0091567128075978  0.1159909313645931  0.4952240585432647
  0.4420078665729296  0.8839528372151707  0.5366684025033105
  0.2602744695203553  0.5103563733778953  0.5363103546686925
  0.4908663624827743  0.4706582308042051  0.2303797230004900
  0.4960481314624689  0.4999692899550706  0.0335700275870763
 
  0.00000000E+00  0.00000000E+00  0.00000000E+00
  0.00000000E+00  0.00000000E+00  0.00000000E+00
  0.00000000E+00  0.00000000E+00  0.00000000E+00
  0.00000000E+00  0.00000000E+00  0.00000000E+00
  0.00000000E+00  0.00000000E+00  0.00000000E+00
  0.00000000E+00  0.00000000E+00  0.00000000E+00
  0.00000000E+00  0.00000000E+00  0.00000000E+00
  0.00000000E+00  0.00000000E+00  0.00000000E+00
  0.00000000E+00  0.00000000E+00  0.00000000E+00
  0.00000000E+00  0.00000000E+00  0.00000000E+00
  0.00000000E+00  0.00000000E+00  0.00000000E+00
  0.00000000E+00  0.00000000E+00  0.00000000E+00
  0.00000000E+00  0.00000000E+00  0.00000000E+00
  0.00000000E+00  0.00000000E+00  0.00000000E+00
  0.00000000E+00  0.00000000E+00  0.00000000E+00
  0.00000000E+00  0.00000000E+00  0.00000000E+00
  0.00000000E+00  0.00000000E+00  0.00000000E+00
  0.00000000E+00  0.00000000E+00  0.00000000E+00
  0.00000000E+00  0.00000000E+00  0.00000000E+00
  0.00000000E+00  0.00000000E+00  0.00000000E+00
  0.00000000E+00  0.00000000E+00  0.00000000E+00
  0.00000000E+00  0.00000000E+00  0.00000000E+00
  0.00000000E+00  0.00000000E+00  0.00000000E+00
  0.00000000E+00  0.00000000E+00  0.00000000E+00
  0.00000000E+00  0.00000000E+00  0.00000000E+00
  0.00000000E+00  0.00000000E+00  0.00000000E+00
  0.00000000E+00  0.00000000E+00  0.00000000E+00
  0.00000000E+00  0.00000000E+00  0.00000000E+00
  0.00000000E+00  0.00000000E+00  0.00000000E+00
  0.00000000E+00  0.00000000E+00  0.00000000E+00
  0.00000000E+00  0.00000000E+00  0.00000000E+00
  0.00000000E+00  0.00000000E+00  0.00000000E+00
  0.00000000E+00  0.00000000E+00  0.00000000E+00
  0.00000000E+00  0.00000000E+00  0.00000000E+00
  0.00000000E+00  0.00000000E+00  0.00000000E+00
  0.00000000E+00  0.00000000E+00  0.00000000E+00
  0.00000000E+00  0.00000000E+00  0.00000000E+00
  0.00000000E+00  0.00000000E+00  0.00000000E+00
  0.00000000E+00  0.00000000E+00  0.00000000E+00
  0.00000000E+00  0.00000000E+00  0.00000000E+00
  0.00000000E+00  0.00000000E+00  0.00000000E+00
  0.00000000E+00  0.00000000E+00  0.00000000E+00
  0.00000000E+00  0.00000000E+00  0.00000000E+00
  0.00000000E+00  0.00000000E+00  0.00000000E+00
  0.00000000E+00  0.00000000E+00  0.00000000E+00
  0.00000000E+00  0.00000000E+00  0.00000000E+00
  0.00000000E+00  0.00000000E+00  0.00000000E+00
  0.00000000E+00  0.00000000E+00  0.00000000E+00
  0.00000000E+00  0.00000000E+00  0.00000000E+00
  0.00000000E+00  0.00000000E+00  0.00000000E+00
  0.00000000E+00  0.00000000E+00  0.00000000E+00
  0.00000000E+00  0.00000000E+00  0.00000000E+00
  0.00000000E+00  0.00000000E+00  0.00000000E+00
  0.00000000E+00  0.00000000E+00  0.00000000E+00
  0.00000000E+00  0.00000000E+00  0.00000000E+00
  0.00000000E+00  0.00000000E+00  0.00000000E+00
  0.00000000E+00  0.00000000E+00  0.00000000E+00
  0.00000000E+00  0.00000000E+00  0.00000000E+00
  0.00000000E+00  0.00000000E+00  0.00000000E+00
  0.00000000E+00  0.00000000E+00  0.00000000E+00
  0.00000000E+00  0.00000000E+00  0.00000000E+00
  0.00000000E+00  0.00000000E+00  0.00000000E+00
  0.00000000E+00  0.00000000E+00  0.00000000E+00
  0.00000000E+00  0.00000000E+00  0.00000000E+00
  0.00000000E+00  0.00000000E+00  0.00000000E+00
  0.00000000E+00  0.00000000E+00  0.00000000E+00
  0.00000000E+00  0.00000000E+00  0.00000000E+00
  0.00000000E+00  0.00000000E+00  0.00000000E+00
  0.00000000E+00  0.00000000E+00  0.00000000E+00
  0.00000000E+00  0.00000000E+00  0.00000000E+00
  0.00000000E+00  0.00000000E+00  0.00000000E+00
  0.00000000E+00  0.00000000E+00  0.00000000E+00
  0.00000000E+00  0.00000000E+00  0.00000000E+00
  0.00000000E+00  0.00000000E+00  0.00000000E+00
  0.00000000E+00  0.00000000E+00  0.00000000E+00
  0.00000000E+00  0.00000000E+00  0.00000000E+00
  0.00000000E+00  0.00000000E+00  0.00000000E+00
  0.00000000E+00  0.00000000E+00  0.00000000E+00
  0.00000000E+00  0.00000000E+00  0.00000000E+00
  0.00000000E+00  0.00000000E+00  0.00000000E+00
  0.00000000E+00  0.00000000E+00  0.00000000E+00
  0.00000000E+00  0.00000000E+00  0.00000000E+00
  0.00000000E+00  0.00000000E+00  0.00000000E+00
  0.00000000E+00  0.00000000E+00  0.00000000E+00
  0.00000000E+00  0.00000000E+00  0.00000000E+00
  0.00000000E+00  0.00000000E+00  0.00000000E+00
  0.00000000E+00  0.00000000E+00  0.00000000E+00
  0.00000000E+00  0.00000000E+00  0.00000000E+00
  0.00000000E+00  0.00000000E+00  0.00000000E+00
  0.00000000E+00  0.00000000E+00  0.00000000E+00
  0.00000000E+00  0.00000000E+00  0.00000000E+00
  0.00000000E+00  0.00000000E+00  0.00000000E+00
  0.00000000E+00  0.00000000E+00  0.00000000E+00
  0.00000000E+00  0.00000000E+00  0.00000000E+00
  0.00000000E+00  0.00000000E+00  0.00000000E+00
  0.00000000E+00  0.00000000E+00  0.00000000E+00
  0.00000000E+00  0.00000000E+00  0.00000000E+00
  0.00000000E+00  0.00000000E+00  0.00000000E+00
  0.00000000E+00  0.00000000E+00  0.00000000E+00
  0.00000000E+00  0.00000000E+00  0.00000000E+00
  0.00000000E+00  0.00000000E+00  0.00000000E+00
  0.00000000E+00  0.00000000E+00  0.00000000E+00
  0.00000000E+00  0.00000000E+00  0.00000000E+00
  0.00000000E+00  0.00000000E+00  0.00000000E+00
  0.00000000E+00  0.00000000E+00  0.00000000E+00
  0.00000000E+00  0.00000000E+00  0.00000000E+00
  0.00000000E+00  0.00000000E+00  0.00000000E+00
  0.00000000E+00  0.00000000E+00  0.00000000E+00
  0.00000000E+00  0.00000000E+00  0.00000000E+00
  0.00000000E+00  0.00000000E+00  0.00000000E+00
  0.00000000E+00  0.00000000E+00  0.00000000E+00
  0.00000000E+00  0.00000000E+00  0.00000000E+00
  0.00000000E+00  0.00000000E+00  0.00000000E+00
  0.00000000E+00  0.00000000E+00  0.00000000E+00
  0.00000000E+00  0.00000000E+00  0.00000000E+00
  0.00000000E+00  0.00000000E+00  0.00000000E+00
  0.00000000E+00  0.00000000E+00  0.00000000E+00
  0.00000000E+00  0.00000000E+00  0.00000000E+00
  0.00000000E+00  0.00000000E+00  0.00000000E+00
  0.00000000E+00  0.00000000E+00  0.00000000E+00
  0.00000000E+00  0.00000000E+00  0.00000000E+00
  0.00000000E+00  0.00000000E+00  0.00000000E+00
  0.00000000E+00  0.00000000E+00  0.00000000E+00
  0.00000000E+00  0.00000000E+00  0.00000000E+00
  0.00000000E+00  0.00000000E+00  0.00000000E+00
  0.00000000E+00  0.00000000E+00  0.00000000E+00
  0.00000000E+00  0.00000000E+00  0.00000000E+00
  0.00000000E+00  0.00000000E+00  0.00000000E+00
  0.00000000E+00  0.00000000E+00  0.00000000E+00
  0.00000000E+00  0.00000000E+00  0.00000000E+00
  0.00000000E+00  0.00000000E+00  0.00000000E+00
  0.00000000E+00  0.00000000E+00  0.00000000E+00
  0.00000000E+00  0.00000000E+00  0.00000000E+00
  0.00000000E+00  0.00000000E+00  0.00000000E+00
  0.00000000E+00  0.00000000E+00  0.00000000E+00
  0.00000000E+00  0.00000000E+00  0.00000000E+00
  0.00000000E+00  0.00000000E+00  0.00000000E+00
  0.00000000E+00  0.00000000E+00  0.00000000E+00
  0.00000000E+00  0.00000000E+00  0.00000000E+00
  0.00000000E+00  0.00000000E+00  0.00000000E+00
  0.00000000E+00  0.00000000E+00  0.00000000E+00
  0.00000000E+00  0.00000000E+00  0.00000000E+00
  0.00000000E+00  0.00000000E+00  0.00000000E+00
  0.00000000E+00  0.00000000E+00  0.00000000E+00
  0.00000000E+00  0.00000000E+00  0.00000000E+00
  0.00000000E+00  0.00000000E+00  0.00000000E+00
  0.00000000E+00  0.00000000E+00  0.00000000E+00
  0.00000000E+00  0.00000000E+00  0.00000000E+00
  0.00000000E+00  0.00000000E+00  0.00000000E+00
  0.00000000E+00  0.00000000E+00  0.00000000E+00
  0.00000000E+00  0.00000000E+00  0.00000000E+00
  0.00000000E+00  0.00000000E+00  0.00000000E+00
  0.00000000E+00  0.00000000E+00  0.00000000E+00
  0.00000000E+00  0.00000000E+00  0.00000000E+00
  0.00000000E+00  0.00000000E+00  0.00000000E+00
  0.00000000E+00  0.00000000E+00  0.00000000E+00
  0.00000000E+00  0.00000000E+00  0.00000000E+00
  0.00000000E+00  0.00000000E+00  0.00000000E+00
  0.00000000E+00  0.00000000E+00  0.00000000E+00
  0.00000000E+00  0.00000000E+00  0.00000000E+00
  0.00000000E+00  0.00000000E+00  0.00000000E+00
  0.00000000E+00  0.00000000E+00  0.00000000E+00
  0.00000000E+00  0.00000000E+00  0.00000000E+00
  0.00000000E+00  0.00000000E+00  0.00000000E+00
  0.00000000E+00  0.00000000E+00  0.00000000E+00
  0.00000000E+00  0.00000000E+00  0.00000000E+00
  0.00000000E+00  0.00000000E+00  0.00000000E+00
  0.00000000E+00  0.00000000E+00  0.00000000E+00
  0.00000000E+00  0.00000000E+00  0.00000000E+00
  0.00000000E+00  0.00000000E+00  0.00000000E+00
  0.00000000E+00  0.00000000E+00  0.00000000E+00
  0.00000000E+00  0.00000000E+00  0.00000000E+00
  0.00000000E+00  0.00000000E+00  0.00000000E+00
  0.00000000E+00  0.00000000E+00  0.00000000E+00
  0.00000000E+00  0.00000000E+00  0.00000000E+00
  0.00000000E+00  0.00000000E+00  0.00000000E+00
  0.00000000E+00  0.00000000E+00  0.00000000E+00
  0.00000000E+00  0.00000000E+00  0.00000000E+00
  0.00000000E+00  0.00000000E+00  0.00000000E+00
  0.00000000E+00  0.00000000E+00  0.00000000E+00
  0.00000000E+00  0.00000000E+00  0.00000000E+00
  0.00000000E+00  0.00000000E+00  0.00000000E+00
  0.00000000E+00  0.00000000E+00  0.00000000E+00
  0.00000000E+00  0.00000000E+00  0.00000000E+00
  0.00000000E+00  0.00000000E+00  0.00000000E+00
  0.00000000E+00  0.00000000E+00  0.00000000E+00
  0.00000000E+00  0.00000000E+00  0.00000000E+00
  0.00000000E+00  0.00000000E+00  0.00000000E+00
  0.00000000E+00  0.00000000E+00  0.00000000E+00
  0.00000000E+00  0.00000000E+00  0.00000000E+00
  0.00000000E+00  0.00000000E+00  0.00000000E+00
  0.00000000E+00  0.00000000E+00  0.00000000E+00
  0.00000000E+00  0.00000000E+00  0.00000000E+00
  0.00000000E+00  0.00000000E+00  0.00000000E+00
  0.00000000E+00  0.00000000E+00  0.00000000E+00
  0.00000000E+00  0.00000000E+00  0.00000000E+00
  0.00000000E+00  0.00000000E+00  0.00000000E+00
  0.00000000E+00  0.00000000E+00  0.00000000E+00
  0.00000000E+00  0.00000000E+00  0.00000000E+00
  0.00000000E+00  0.00000000E+00  0.00000000E+00
  0.00000000E+00  0.00000000E+00  0.00000000E+00
  0.00000000E+00  0.00000000E+00  0.00000000E+00
  0.00000000E+00  0.00000000E+00  0.00000000E+00
  0.00000000E+00  0.00000000E+00  0.00000000E+00
  0.00000000E+00  0.00000000E+00  0.00000000E+00
  0.00000000E+00  0.00000000E+00  0.00000000E+00
  0.00000000E+00  0.00000000E+00  0.00000000E+00
  0.00000000E+00  0.00000000E+00  0.00000000E+00
  0.00000000E+00  0.00000000E+00  0.00000000E+00
  0.00000000E+00  0.00000000E+00  0.00000000E+00
  0.00000000E+00  0.00000000E+00  0.00000000E+00
  0.00000000E+00  0.00000000E+00  0.00000000E+00
  0.00000000E+00  0.00000000E+00  0.00000000E+00
  0.00000000E+00  0.00000000E+00  0.00000000E+00
  0.00000000E+00  0.00000000E+00  0.00000000E+00
  0.00000000E+00  0.00000000E+00  0.00000000E+00
  0.00000000E+00  0.00000000E+00  0.00000000E+00
  0.00000000E+00  0.00000000E+00  0.00000000E+00
  0.00000000E+00  0.00000000E+00  0.00000000E+00
  0.00000000E+00  0.00000000E+00  0.00000000E+00
  0.00000000E+00  0.00000000E+00  0.00000000E+00
  0.00000000E+00  0.00000000E+00  0.00000000E+00
  0.00000000E+00  0.00000000E+00  0.00000000E+00
  0.00000000E+00  0.00000000E+00  0.00000000E+00
