 Al  N 
 1.0000000000000000
   234.6441000000000088    0.0000000000000000    0.0000000000000000
  -117.3220500000000044  203.2077749999999980    0.0000000000000000
     0.0000000000000000    0.0000000000000000   10.0339100000000006
 Al N
 22500 22500
Direct
  0.0044444400000000  0.0088888933333333  0.4996435000000000
  0.8222222266666667  0.8711111066666667  0.7496435000000000
  0.3555555599999999  0.2444444400000000  0.2496435000000000
  0.3511111066666667  0.2488888933333333  0.4996435000000000
  0.3555555599999999  0.2311111066666666  0.7496435000000000
  0.3511111066666667  0.2355555600000000  0.9996435000000000
  0.8177777733333333  0.8888888933333332  0.4996435000000000
  0.8222222266666667  0.8844444399999999  0.2496435000000000
  0.3555555599999999  0.2311111066666666  0.2496435000000000
  0.8177777733333333  0.8755555600000000  0.9996435000000000
  0.3511111066666667  0.2355555600000000  0.4996435000000000
  0.5822222266666667  0.4444444399999999  0.2496435000000000
  0.3555555599999999  0.2177777733333333  0.7496435000000000
  0.3511111066666666  0.2222222266666667  0.9996435000000000
  0.8177777733333333  0.8888888933333332  0.9996435000000000
  0.8222222266666667  0.8844444399999999  0.7496435000000000
  0.3555555599999999  0.2177777733333333  0.2496435000000000
  0.3511111066666666  0.2222222266666667  0.4996435000000000
  0.7155555600000001  0.2711111066666667  0.7496435000000000
  0.5777777733333335  0.4488888933333333  0.4996435000000000
  0.3511111066666667  0.2488888933333333  0.9996435000000000
  0.3555555599999999  0.2444444400000000  0.7496435000000000
  0.5822222266666667  0.4311111066666666  0.7496435000000000
  0.3555555599999999  0.2844444400000000  0.2496435000000000
  0.3511111066666666  0.2888888933333333  0.4996435000000000
  0.5777777733333334  0.4355555600000000  0.4996435000000000
  0.5822222266666667  0.4311111066666666  0.2496435000000000
  0.3555555599999999  0.2711111066666667  0.7496435000000000
  0.3511111066666666  0.2755555600000000  0.9996435000000000
  0.8177777733333333  0.8622222266666667  0.9996435000000000
  0.8222222266666667  0.8577777733333333  0.7496435000000000
  0.3555555599999999  0.2711111066666667  0.2496435000000000
  0.3511111066666666  0.2755555600000000  0.4996435000000000
  0.7155555600000000  0.2844444400000000  0.2496435000000000
  0.7111111066666667  0.2888888933333333  0.4996435000000000
  0.3555555599999999  0.2577777733333333  0.7496435000000000
  0.3511111066666667  0.2622222266666667  0.9996435000000000
  0.8177777733333333  0.8755555600000000  0.4996435000000000
  0.8222222266666667  0.8711111066666667  0.2496435000000000
  0.3555555599999999  0.2577777733333333  0.2496435000000000
  0.3511111066666667  0.2622222266666667  0.4996435000000000
  0.5777777733333334  0.4355555600000000  0.9996435000000000
  0.7111111066666668  0.2755555600000000  0.9996435000000000
  0.8222222266666667  0.8577777733333333  0.2496435000000000
  0.3555555599999999  0.2044444400000000  0.7496435000000000
  0.8177777733333333  0.9022222266666666  0.4996435000000000
  0.3555555599999999  0.1644444400000000  0.2496435000000000
  0.3511111066666667  0.1688888933333333  0.4996435000000000
  0.7155555600000001  0.2711111066666667  0.2496435000000000
  0.7111111066666668  0.2755555600000000  0.4996435000000000
  0.3555555599999999  0.1511111066666667  0.7496435000000000
  0.3511111066666667  0.1555555600000000  0.9996435000000000
  0.8177777733333333  0.9288888933333334  0.4996435000000000
  0.8222222266666667  0.9244444400000000  0.2496435000000000
  0.8222222266666667  0.9111111066666666  0.7496435000000000
  0.3555555599999999  0.1511111066666667  0.2496435000000000
  0.5777777733333335  0.4622222266666666  0.9996435000000000
  0.5822222266666667  0.4577777733333333  0.7496435000000000
  0.3555555600000000  0.1377777733333333  0.7496435000000000
  0.3511111066666667  0.1422222266666666  0.9996435000000000
  0.8177777733333333  0.9288888933333334  0.9996435000000000
  0.8222222266666667  0.9244444400000000  0.7496435000000000
  0.3555555600000000  0.1377777733333333  0.2496435000000000
  0.3511111066666667  0.1422222266666666  0.4996435000000000
  0.3511111066666667  0.1555555600000000  0.4996435000000000
  0.8177777733333335  0.9155555600000000  0.9996435000000000
  0.3511111066666667  0.1688888933333333  0.9996435000000000
  0.3555555599999999  0.1644444400000000  0.7496435000000000
  0.8222222266666667  0.8977777733333332  0.2496435000000000
  0.3555555599999999  0.2044444400000000  0.2496435000000000
  0.3511111066666667  0.2088888933333333  0.4996435000000000
  0.5777777733333335  0.4488888933333333  0.9996435000000000
  0.5822222266666667  0.4444444399999999  0.7496435000000000
  0.3555555599999999  0.1911111066666666  0.7496435000000000
  0.3511111066666667  0.1955555600000000  0.9996435000000000
  0.8177777733333333  0.9022222266666666  0.9996435000000000
  0.8222222266666667  0.8977777733333332  0.7496435000000000
  0.3555555599999999  0.1911111066666666  0.2496435000000000
  0.3511111066666667  0.1955555600000000  0.4996435000000000
  0.3555555599999999  0.1777777733333333  0.7496435000000000
  0.3511111066666667  0.1822222266666667  0.9996435000000000
  0.8177777733333335  0.9155555600000000  0.4996435000000000
  0.8222222266666667  0.9111111066666666  0.2496435000000000
  0.3555555599999999  0.1777777733333333  0.2496435000000000
  0.3511111066666667  0.1822222266666667  0.4996435000000000
  0.5777777733333335  0.4622222266666666  0.4996435000000000
  0.5822222266666667  0.4577777733333333  0.2496435000000000
  0.3511111066666667  0.2088888933333333  0.9996435000000000
  0.8177777733333333  0.8622222266666667  0.4996435000000000
  0.3511111066666666  0.2888888933333333  0.9996435000000000
  0.3555555599999999  0.2844444400000000  0.7496435000000000
  0.8177777733333333  0.7955555599999999  0.9996435000000000
  0.8222222266666667  0.7911111066666665  0.7496435000000000
  0.3555555599999999  0.4044444400000000  0.2496435000000000
  0.3511111066666666  0.4088888933333333  0.4996435000000000
  0.3555555599999999  0.3911111066666667  0.7496435000000000
  0.3511111066666666  0.3955555600000000  0.9996435000000000
  0.8177777733333333  0.8088888933333332  0.4996435000000000
  0.8222222266666667  0.8044444399999999  0.2496435000000000
  0.3511111066666666  0.4088888933333333  0.9996435000000000
  0.3555555599999999  0.3911111066666667  0.2496435000000000
  0.5777777733333335  0.4088888933333333  0.4996435000000000
  0.5822222266666667  0.4044444400000000  0.2496435000000000
  0.3555555599999999  0.3777777733333333  0.7496435000000000
  0.3511111066666666  0.3822222266666666  0.9996435000000000
  0.8177777733333333  0.8088888933333332  0.9996435000000000
  0.8222222266666667  0.8044444399999999  0.7496435000000000
  0.3555555599999999  0.3777777733333333  0.2496435000000000
  0.3511111066666666  0.3822222266666666  0.4996435000000000
  0.3511111066666666  0.3955555600000000  0.4996435000000000
  0.3555555599999999  0.4044444400000000  0.7496435000000000
  0.5822222266666667  0.3911111066666667  0.7496435000000000
  0.5777777733333334  0.3955555600000000  0.9996435000000000
  0.8222222266666667  0.7777777733333333  0.2496435000000000
  0.3555555599999999  0.4444444399999999  0.2496435000000000
  0.3511111066666667  0.4488888933333333  0.4996435000000000
  0.5777777733333334  0.3955555600000000  0.4996435000000000
  0.5822222266666667  0.3911111066666667  0.2496435000000000
  0.3555555599999999  0.4311111066666666  0.7496435000000000
  0.3511111066666667  0.4355555600000000  0.9996435000000000
  0.8177777733333333  0.7822222266666667  0.9996435000000000
  0.8222222266666667  0.7777777733333333  0.7496435000000000
  0.3555555599999999  0.4311111066666666  0.2496435000000000
  0.3511111066666667  0.4355555600000000  0.4996435000000000
  0.7155555600000001  0.2977777733333333  0.7496435000000000
  0.7111111066666667  0.3022222266666666  0.9996435000000000
  0.3555555599999999  0.4177777733333333  0.7496435000000000
  0.3511111066666666  0.4222222266666666  0.9996435000000000
  0.8177777733333333  0.7955555599999999  0.4996435000000000
  0.8222222266666667  0.7911111066666665  0.2496435000000000
  0.3555555599999999  0.4177777733333333  0.2496435000000000
  0.3511111066666666  0.4222222266666666  0.4996435000000000
  0.7155555600000001  0.2977777733333333  0.2496435000000000
  0.7111111066666667  0.3022222266666666  0.4996435000000000
  0.3555555599999999  0.3644444400000000  0.7496435000000000
  0.3511111066666666  0.3688888933333333  0.9996435000000000
  0.8222222266666667  0.8311111066666667  0.7496435000000000
  0.3555555599999999  0.3244444400000000  0.2496435000000000
  0.3511111066666667  0.3288888933333333  0.4996435000000000
  0.7155555600000000  0.2844444400000000  0.7496435000000000
  0.7111111066666667  0.2888888933333333  0.9996435000000000
  0.3555555599999999  0.3111111066666666  0.7496435000000000
  0.3511111066666666  0.3155555600000000  0.9996435000000000
  0.8177777733333333  0.8488888933333333  0.4996435000000000
  0.8222222266666667  0.8444444399999999  0.2496435000000000
  0.3555555599999999  0.3111111066666666  0.2496435000000000
  0.3511111066666666  0.3155555600000000  0.4996435000000000
  0.5777777733333335  0.4222222266666666  0.9996435000000000
  0.5822222266666667  0.4177777733333333  0.7496435000000000
  0.3555555599999999  0.2977777733333333  0.7496435000000000
  0.3511111066666666  0.3022222266666666  0.9996435000000000
  0.8177777733333333  0.8488888933333333  0.9996435000000000
  0.8222222266666667  0.8444444399999999  0.7496435000000000
  0.3555555599999999  0.2977777733333333  0.2496435000000000
  0.3511111066666666  0.3022222266666666  0.4996435000000000
  0.8177777733333333  0.8355555600000001  0.9996435000000000
  0.3555555599999999  0.1244444400000000  0.7496435000000000
  0.3511111066666667  0.3288888933333333  0.9996435000000000
  0.5822222266666667  0.4177777733333333  0.2496435000000000
  0.8177777733333333  0.8222222266666667  0.4996435000000000
  0.8222222266666667  0.8177777733333332  0.2496435000000000
  0.3555555599999999  0.3644444400000000  0.2496435000000000
  0.3511111066666666  0.3688888933333333  0.4996435000000000
  0.5777777733333335  0.4088888933333333  0.9996435000000000
  0.5822222266666667  0.4044444400000000  0.7496435000000000
  0.3555555599999999  0.3511111066666667  0.7496435000000000
  0.3511111066666667  0.3555555600000000  0.9996435000000000
  0.8177777733333333  0.8222222266666667  0.9996435000000000
  0.8222222266666667  0.8177777733333332  0.7496435000000000
  0.3555555599999999  0.3511111066666667  0.2496435000000000
  0.3511111066666667  0.3555555600000000  0.4996435000000000
  0.3555555599999999  0.3377777733333333  0.7496435000000000
  0.3511111066666666  0.3422222266666666  0.9996435000000000
  0.8177777733333333  0.8355555600000001  0.4996435000000000
  0.8222222266666667  0.8311111066666667  0.2496435000000000
  0.3555555599999999  0.3377777733333333  0.2496435000000000
  0.3511111066666666  0.3422222266666666  0.4996435000000000
  0.5777777733333335  0.4222222266666666  0.4996435000000000
  0.3555555599999999  0.3244444400000000  0.7496435000000000
  0.8177777733333333  0.7822222266666667  0.4996435000000000
  0.3511111066666667  0.1288888933333333  0.9996435000000000
  0.8222222266666667  0.9377777733333332  0.2496435000000000
  0.3422222266666666  0.9244444400000000  0.2496435000000000
  0.3377777733333334  0.9288888933333334  0.4996435000000000
  0.3422222266666666  0.9111111066666666  0.7496435000000000
  0.3377777733333334  0.9155555600000000  0.9996435000000000
  0.8311111066666668  0.0488888933333333  0.4996435000000000
  0.8355555600000002  0.0444444400000000  0.2496435000000000
  0.3422222266666666  0.9111111066666666  0.2496435000000000
  0.3377777733333334  0.9155555600000000  0.4996435000000000
  0.8355555600000000  0.0311111066666667  0.7496435000000000
  0.5777777733333335  0.5288888933333333  0.4996435000000000
  0.3422222266666666  0.8977777733333332  0.7496435000000000
  0.3377777733333334  0.9022222266666666  0.9996435000000000
  0.8311111066666668  0.0488888933333333  0.9996435000000000
  0.8355555600000002  0.0444444400000000  0.7496435000000000
  0.3422222266666666  0.8977777733333332  0.2496435000000000
  0.3377777733333334  0.9022222266666666  0.4996435000000000
  0.7155555600000001  0.2311111066666666  0.7496435000000000
  0.7111111066666668  0.2355555600000000  0.9996435000000000
  0.5822222266666668  0.5244444400000000  0.2496435000000000
  0.8311111066666667  0.0355555600000000  0.9996435000000000
  0.3377777733333334  0.9288888933333334  0.9996435000000000
  0.3422222266666666  0.9244444400000000  0.7496435000000000
  0.3377777733333334  0.9688888933333334  0.4996435000000000
  0.5777777733333334  0.5155555599999999  0.4996435000000000
  0.5822222266666667  0.5111111066666666  0.2496435000000000
  0.3422222266666666  0.9511111066666667  0.7496435000000000
  0.3377777733333334  0.9555555600000000  0.9996435000000000
  0.8311111066666668  0.0222222266666667  0.9996435000000000
  0.8355555600000002  0.0177777733333333  0.7496435000000000
  0.3422222266666666  0.9511111066666667  0.2496435000000000
  0.3377777733333334  0.9555555600000000  0.4996435000000000
  0.7155555600000000  0.2444444400000000  0.2496435000000000
  0.7111111066666667  0.2488888933333333  0.4996435000000000
  0.3422222266666666  0.9377777733333332  0.7496435000000000
  0.3377777733333334  0.9422222266666667  0.9996435000000000
  0.8311111066666667  0.0355555600000000  0.4996435000000000
  0.8355555600000000  0.0311111066666667  0.2496435000000000
  0.3422222266666666  0.9377777733333332  0.2496435000000000
  0.3377777733333334  0.9422222266666667  0.4996435000000000
  0.5777777733333334  0.5155555599999999  0.9996435000000000
  0.5822222266666667  0.5111111066666666  0.7496435000000000
  0.3422222266666666  0.8844444399999999  0.7496435000000000
  0.3422222266666666  0.9644444400000000  0.2496435000000000
  0.3377777733333334  0.8888888933333332  0.9996435000000000
  0.8355555600000002  0.0577777733333333  0.2496435000000000
  0.3377777733333334  0.8488888933333333  0.4996435000000000
  0.7155555600000001  0.2311111066666666  0.2496435000000000
  0.7111111066666668  0.2355555600000000  0.4996435000000000
  0.3422222266666666  0.8311111066666667  0.7496435000000000
  0.3377777733333334  0.8355555600000001  0.9996435000000000
  0.8311111066666668  0.0888888933333333  0.4996435000000000
  0.8355555600000002  0.0844444400000000  0.2496435000000000
  0.3422222266666666  0.8311111066666667  0.2496435000000000
  0.3422222266666666  0.8444444399999999  0.2496435000000000
  0.3377777733333334  0.8355555600000001  0.4996435000000000
  0.5822222266666667  0.5377777733333333  0.7496435000000000
  0.3422222266666666  0.8177777733333332  0.7496435000000000
  0.3377777733333334  0.8222222266666667  0.9996435000000000
  0.8311111066666668  0.0888888933333333  0.9996435000000000
  0.8355555600000002  0.0844444400000000  0.7496435000000000
  0.3422222266666666  0.8177777733333332  0.2496435000000000
  0.3377777733333334  0.8222222266666667  0.4996435000000000
  0.3422222266666666  0.8044444399999999  0.7496435000000000
  0.5777777733333334  0.5422222266666666  0.9996435000000000
  0.8355555600000002  0.0711111066666667  0.7496435000000000
  0.8311111066666667  0.0755555600000000  0.9996435000000000
  0.3377777733333334  0.8488888933333333  0.9996435000000000
  0.3422222266666666  0.8844444399999999  0.2496435000000000
  0.3377777733333334  0.8888888933333332  0.4996435000000000
  0.5777777733333335  0.5288888933333333  0.9996435000000000
  0.5822222266666668  0.5244444400000000  0.7496435000000000
  0.3422222266666666  0.8711111066666667  0.7496435000000000
  0.3377777733333334  0.8755555600000000  0.9996435000000000
  0.8311111066666668  0.0622222266666667  0.9996435000000000
  0.8355555600000002  0.0577777733333333  0.7496435000000000
  0.3422222266666666  0.8711111066666667  0.2496435000000000
  0.3377777733333334  0.8755555600000000  0.4996435000000000
  0.3422222266666666  0.8577777733333333  0.7496435000000000
  0.3377777733333334  0.8622222266666667  0.9996435000000000
  0.8311111066666667  0.0755555600000000  0.4996435000000000
  0.8355555600000002  0.0711111066666667  0.2496435000000000
  0.3422222266666666  0.8577777733333333  0.2496435000000000
  0.3377777733333334  0.8622222266666667  0.4996435000000000
  0.5777777733333334  0.5422222266666666  0.4996435000000000
  0.5822222266666667  0.5377777733333333  0.2496435000000000
  0.3422222266666666  0.8444444399999999  0.7496435000000000
  0.8311111066666668  0.0622222266666667  0.4996435000000000
  0.8355555600000002  0.0177777733333333  0.2496435000000000
  0.8311111066666668  0.0222222266666667  0.4996435000000000
  0.3377777733333334  0.9688888933333334  0.9996435000000000
  0.8222222266666667  0.9511111066666667  0.7496435000000000
  0.3555555600000000  0.0844444400000000  0.2496435000000000
  0.3511111066666667  0.0888888933333333  0.4996435000000000
  0.3555555599999999  0.0711111066666667  0.7496435000000000
  0.3511111066666667  0.0755555600000000  0.9996435000000000
  0.8177777733333335  0.9688888933333334  0.4996435000000000
  0.8222222266666667  0.9644444400000000  0.2496435000000000
  0.3555555599999999  0.0711111066666667  0.2496435000000000
  0.8177777733333333  0.9555555600000000  0.9996435000000000
  0.3511111066666667  0.0755555600000000  0.4996435000000000
  0.5822222266666667  0.4844444400000000  0.2496435000000000
  0.3555555599999999  0.0577777733333333  0.7496435000000000
  0.3511111066666667  0.0622222266666667  0.9996435000000000
  0.8177777733333335  0.9688888933333334  0.9996435000000000
  0.8222222266666667  0.9644444400000000  0.7496435000000000
  0.3555555599999999  0.0577777733333333  0.2496435000000000
  0.3511111066666667  0.0622222266666667  0.4996435000000000
  0.7155555600000000  0.2577777733333333  0.2496435000000000
  0.5777777733333335  0.4888888933333333  0.4996435000000000
  0.3511111066666667  0.0888888933333333  0.9996435000000000
  0.3555555600000000  0.0844444400000000  0.7496435000000000
  0.5822222266666667  0.4711111066666666  0.7496435000000000
  0.3555555599999999  0.1244444400000000  0.2496435000000000
  0.3511111066666667  0.1288888933333333  0.4996435000000000
  0.5777777733333334  0.4755555599999999  0.4996435000000000
  0.5822222266666667  0.4711111066666666  0.2496435000000000
  0.3555555599999999  0.1111111066666667  0.7496435000000000
  0.3511111066666667  0.1155555600000000  0.9996435000000000
  0.8177777733333335  0.9422222266666667  0.9996435000000000
  0.8222222266666667  0.9377777733333332  0.7496435000000000
  0.3555555599999999  0.1111111066666667  0.2496435000000000
  0.3511111066666667  0.1155555600000000  0.4996435000000000
  0.7155555600000000  0.2577777733333333  0.7496435000000000
  0.7111111066666668  0.2622222266666667  0.9996435000000000
  0.3555555599999999  0.0977777733333333  0.7496435000000000
  0.3511111066666667  0.1022222266666667  0.9996435000000000
  0.8177777733333333  0.9555555600000000  0.4996435000000000
  0.8222222266666667  0.9511111066666667  0.2496435000000000
  0.3555555599999999  0.0977777733333333  0.2496435000000000
  0.3511111066666667  0.1022222266666667  0.4996435000000000
  0.5777777733333334  0.4755555599999999  0.9996435000000000
  0.7111111066666668  0.2622222266666667  0.4996435000000000
  0.3555555600000000  0.0444444400000000  0.7496435000000000
  0.3511111066666667  0.0488888933333333  0.9996435000000000
  0.8177777733333333  0.9822222266666666  0.4996435000000000
  0.3555555599999999  0.0044444400000000  0.2496435000000000
  0.3511111066666667  0.0088888933333333  0.4996435000000000
  0.7155555600000000  0.2444444400000000  0.7496435000000000
  0.7111111066666667  0.2488888933333333  0.9996435000000000
  0.3422222266666666  0.9911111066666666  0.7496435000000000
  0.3377777733333334  0.9955555600000000  0.9996435000000000
  0.8311111066666668  0.0088888933333333  0.4996435000000000
  0.8355555600000002  0.0044444400000000  0.2496435000000000
  0.3422222266666666  0.9911111066666666  0.2496435000000000
  0.3377777733333334  0.9955555600000000  0.4996435000000000
  0.5777777733333335  0.5022222266666666  0.9996435000000000
  0.5822222266666667  0.4977777733333333  0.7496435000000000
  0.3422222266666666  0.9777777733333333  0.7496435000000000
  0.3377777733333333  0.9822222266666666  0.9996435000000000
  0.8311111066666668  0.0088888933333333  0.9996435000000000
  0.8355555600000002  0.0044444400000000  0.7496435000000000
  0.3422222266666666  0.9777777733333333  0.2496435000000000
  0.3377777733333333  0.9822222266666666  0.4996435000000000
  0.3422222266666666  0.9644444400000000  0.7496435000000000
  0.8222222266666667  0.9911111066666666  0.7496435000000000
  0.8177777733333335  0.9422222266666667  0.4996435000000000
  0.8177777733333335  0.9955555600000000  0.9996435000000000
  0.3555555599999999  0.0044444400000000  0.7496435000000000
  0.8222222266666667  0.9777777733333333  0.2496435000000000
  0.3555555600000000  0.0444444400000000  0.2496435000000000
  0.3511111066666667  0.0488888933333333  0.4996435000000000
  0.5777777733333335  0.4888888933333333  0.9996435000000000
  0.5822222266666667  0.4844444400000000  0.7496435000000000
  0.3555555600000000  0.0311111066666667  0.7496435000000000
  0.3511111066666667  0.0355555600000000  0.9996435000000000
  0.8177777733333333  0.9822222266666666  0.9996435000000000
  0.8222222266666667  0.9777777733333333  0.7496435000000000
  0.3555555600000000  0.0311111066666667  0.2496435000000000
  0.3511111066666667  0.0355555600000000  0.4996435000000000
  0.3555555599999999  0.0177777733333333  0.7496435000000000
  0.3511111066666667  0.0222222266666667  0.9996435000000000
  0.8177777733333335  0.9955555600000000  0.4996435000000000
  0.8222222266666667  0.9911111066666666  0.2496435000000000
  0.3555555599999999  0.0177777733333333  0.2496435000000000
  0.3511111066666667  0.0222222266666667  0.4996435000000000
  0.5777777733333335  0.5022222266666666  0.4996435000000000
  0.5822222266666667  0.4977777733333333  0.2496435000000000
  0.3511111066666667  0.0088888933333333  0.9996435000000000
  0.3511111066666667  0.4488888933333333  0.9996435000000000
  0.3555555599999999  0.4444444399999999  0.7496435000000000
  0.3511111066666667  0.4622222266666666  0.4996435000000000
  0.3555555599999999  0.8844444399999999  0.7496435000000000
  0.3511111066666667  0.8888888933333332  0.9996435000000000
  0.8177777733333333  0.5555555599999999  0.9996435000000000
  0.8222222266666667  0.5511111066666666  0.7496435000000000
  0.3555555599999999  0.8844444399999999  0.2496435000000000
  0.3511111066666667  0.8888888933333332  0.4996435000000000
  0.3555555599999999  0.8711111066666667  0.7496435000000000
  0.3511111066666667  0.8755555600000000  0.9996435000000000
  0.5822222266666667  0.2711111066666667  0.7496435000000000
  0.8177777733333333  0.5688888933333333  0.4996435000000000
  0.3555555599999999  0.8711111066666667  0.2496435000000000
  0.3511111066666667  0.8755555600000000  0.4996435000000000
  0.5777777733333334  0.2888888933333333  0.4996435000000000
  0.5822222266666667  0.2844444400000000  0.2496435000000000
  0.3555555599999999  0.8577777733333333  0.7496435000000000
  0.3511111066666667  0.8622222266666667  0.9996435000000000
  0.8177777733333333  0.5688888933333333  0.9996435000000000
  0.8222222266666667  0.5644444399999999  0.7496435000000000
  0.8222222266666667  0.5644444399999999  0.2496435000000000
  0.5777777733333334  0.2755555600000000  0.9996435000000000
  0.3511111066666667  0.9022222266666666  0.4996435000000000
  0.3555555599999999  0.8977777733333332  0.2496435000000000
  0.3511111066666667  0.9288888933333334  0.9996435000000000
  0.8177777733333333  0.5422222266666666  0.4996435000000000
  0.8222222266666667  0.5377777733333333  0.2496435000000000
  0.3555555599999999  0.9244444400000000  0.2496435000000000
  0.3511111066666667  0.9288888933333334  0.4996435000000000
  0.5777777733333334  0.2755555600000000  0.4996435000000000
  0.5822222266666667  0.2711111066666667  0.2496435000000000
  0.3555555599999999  0.9111111066666666  0.7496435000000000
  0.3511111066666667  0.9155555600000000  0.9996435000000000
  0.8177777733333333  0.5422222266666666  0.9996435000000000
  0.8222222266666667  0.5377777733333333  0.7496435000000000
  0.3555555599999999  0.9111111066666666  0.2496435000000000
  0.3511111066666667  0.9155555600000000  0.4996435000000000
  0.7155555600000000  0.3644444400000000  0.2496435000000000
  0.7111111066666667  0.3688888933333333  0.4996435000000000
  0.3555555599999999  0.8977777733333332  0.7496435000000000
  0.3511111066666667  0.9022222266666666  0.9996435000000000
  0.8177777733333333  0.5555555599999999  0.4996435000000000
  0.8222222266666667  0.5511111066666666  0.2496435000000000
  0.3555555599999999  0.8577777733333333  0.2496435000000000
  0.3555555599999999  0.9244444400000000  0.7496435000000000
  0.3511111066666667  0.8622222266666667  0.4996435000000000
  0.7111111066666668  0.3555555600000000  0.9996435000000000
  0.3511111066666667  0.8088888933333332  0.9996435000000000
  0.8177777733333333  0.5955555600000000  0.9996435000000000
  0.8222222266666667  0.5911111066666667  0.7496435000000000
  0.3555555599999999  0.8044444399999999  0.2496435000000000
  0.3511111066666667  0.8088888933333332  0.4996435000000000
  0.7155555600000000  0.3511111066666667  0.2496435000000000
  0.7111111066666668  0.3555555600000000  0.4996435000000000
  0.3555555599999999  0.7911111066666665  0.7496435000000000
  0.3555555599999999  0.8044444399999999  0.7496435000000000
  0.3511111066666667  0.7955555599999999  0.9996435000000000
  0.8222222266666667  0.6044444400000000  0.2496435000000000
  0.3555555599999999  0.7911111066666665  0.2496435000000000
  0.3511111066666667  0.7955555599999999  0.4996435000000000
  0.5777777733333335  0.3022222266666666  0.9996435000000000
  0.5822222266666667  0.2977777733333333  0.7496435000000000
  0.3555555599999999  0.7777777733333333  0.7496435000000000
  0.3511111066666667  0.7822222266666667  0.9996435000000000
  0.8177777733333333  0.6088888933333333  0.9996435000000000
  0.8177777733333333  0.6088888933333333  0.4996435000000000
  0.5822222266666667  0.2977777733333333  0.2496435000000000
  0.5777777733333335  0.3022222266666666  0.4996435000000000
  0.3511111066666667  0.8222222266666667  0.4996435000000000
  0.3555555599999999  0.8444444399999999  0.7496435000000000
  0.3511111066666667  0.8488888933333333  0.9996435000000000
  0.8177777733333333  0.5822222266666666  0.4996435000000000
  0.8222222266666667  0.5777777733333332  0.2496435000000000
  0.3555555599999999  0.8444444399999999  0.2496435000000000
  0.3511111066666667  0.8488888933333333  0.4996435000000000
  0.5777777733333334  0.2888888933333333  0.9996435000000000
  0.5822222266666667  0.2844444400000000  0.7496435000000000
  0.3555555599999999  0.8311111066666667  0.7496435000000000
  0.3511111066666667  0.8355555600000001  0.9996435000000000
  0.8177777733333333  0.5822222266666666  0.9996435000000000
  0.8222222266666667  0.5777777733333332  0.7496435000000000
  0.3555555599999999  0.8311111066666667  0.2496435000000000
  0.3511111066666667  0.8355555600000001  0.4996435000000000
  0.3555555599999999  0.8177777733333332  0.7496435000000000
  0.3511111066666667  0.8222222266666667  0.9996435000000000
  0.8177777733333333  0.5955555600000000  0.4996435000000000
  0.8222222266666667  0.5911111066666667  0.2496435000000000
  0.3555555599999999  0.8177777733333332  0.2496435000000000
  0.7155555600000000  0.3511111066666667  0.7496435000000000
  0.3511111066666667  0.9422222266666667  0.4996435000000000
  0.3555555599999999  0.9377777733333332  0.2496435000000000
  0.8222222266666668  0.5244444400000000  0.7496435000000000
  0.5822222266666667  0.2311111066666666  0.7496435000000000
  0.3688888933333334  0.0444444400000000  0.7496435000000000
  0.3644444400000000  0.0488888933333333  0.9996435000000000
  0.8177777733333333  0.4755555599999999  0.9996435000000000
  0.8222222266666667  0.4711111066666666  0.7496435000000000
  0.3688888933333334  0.0444444400000000  0.2496435000000000
  0.3644444400000000  0.0488888933333333  0.4996435000000000
  0.3688888933333334  0.0311111066666667  0.7496435000000000
  0.5777777733333335  0.2355555600000000  0.9996435000000000
  0.3644444400000001  0.0355555600000000  0.9996435000000000
  0.8222222266666668  0.4844444400000000  0.2496435000000000
  0.3688888933333334  0.0311111066666667  0.2496435000000000
  0.3644444400000001  0.0355555600000000  0.4996435000000000
  0.5777777733333335  0.2488888933333333  0.4996435000000000
  0.5822222266666667  0.2444444400000000  0.2496435000000000
  0.3688888933333333  0.0177777733333333  0.7496435000000000
  0.3644444400000000  0.0222222266666667  0.9996435000000000
  0.8177777733333335  0.4888888933333333  0.9996435000000000
  0.8177777733333335  0.4888888933333333  0.4996435000000000
  0.3644444400000000  0.0622222266666667  0.4996435000000000
  0.3688888933333333  0.0577777733333333  0.2496435000000000
  0.8222222266666667  0.4711111066666666  0.2496435000000000
  0.3688888933333334  0.0844444400000000  0.7496435000000000
  0.3644444400000001  0.0888888933333333  0.9996435000000000
  0.8177777733333333  0.4622222266666666  0.4996435000000000
  0.8222222266666667  0.4577777733333333  0.2496435000000000
  0.3688888933333334  0.0844444400000000  0.2496435000000000
  0.3644444400000001  0.0888888933333333  0.4996435000000000
  0.5777777733333335  0.2355555600000000  0.4996435000000000
  0.5822222266666667  0.2311111066666666  0.2496435000000000
  0.3688888933333333  0.0711111066666667  0.7496435000000000
  0.3644444400000000  0.0755555600000000  0.9996435000000000
  0.8177777733333333  0.4622222266666666  0.9996435000000000
  0.8222222266666667  0.4577777733333333  0.7496435000000000