Al  N 
 1.0000000000000000
   234.6441000000000088    0.0000000000000000    0.0000000000000000
  -117.3220500000000044  203.2077749999999980    0.0000000000000000
     0.0000000000000000    0.0000000000000000   10.0339100000000006
   4   4
Cartesian
 59.4431735642939998 101.1523137635209935  7.5218554110850002
 57.8788764357059904 102.0554612364789904 10.0303329110850008
 59.4431735642939998 101.1523137635209935  2.5049004110849999
 57.8788764357059904 102.0554612364789904  5.0133779110850005
 59.4431735642939998 101.1523137635209935  4.4184974889150004
 59.4431735642939998 101.1523137635209935  9.4354524889150007
 57.8788764357059904 102.0554612364789904  6.9269749889150010
 57.8788764357059904 102.0554612364789904  1.9100199889150002
