Al  N 
 1.0000000000000000
   234.6441000000000088    0.0000000000000000    0.0000000000000000
  -117.3220500000000044  203.2077749999999980    0.0000000000000000
     0.0000000000000000    0.0000000000000000   10.0339100000000006
  60  60
Cartesian
 56.3145824357059936 99.3460242364789963 10.0303329110850008
 57.8788795642940030 98.4428767635209994  2.5049004110849999
 56.3145824357059936 99.3460242364789963  5.0133779110850005
 59.4431735642940069 95.7334397635209911  7.5218554110850002
 57.8788764357060046 96.6365872364789738 10.0303329110850008
 57.8788795642940030 98.4428767635209994  7.5218554110850002
 57.8788764357060046 96.6365872364789738  5.0133779110850005
 59.4431735642940069 95.7334397635209911  2.5049004110849999
 54.7502884357059969 102.0554612364789904  5.0133779110850005
 54.7502915642939811 103.8617507635209876  7.5218554110850002
 53.1859944357060002 104.7648982364789845 10.0303329110850008
 54.7502915642939811 103.8617507635209876  2.5049004110849999
 53.1859944357060002 104.7648982364789845  5.0133779110850005
 56.3145855642940063 101.1523137635209935  7.5218554110850002
 54.7502884357059969 102.0554612364789904 10.0303329110850008
 56.3145855642940063 101.1523137635209935  2.5049004110849999
 53.1859944357060144 99.3460242364789963  5.0133779110850005
 54.7502915642939811 98.4428767635209994  2.5049004110849999
 53.1859944357060144 99.3460242364789963 10.0303329110850008
 53.1859975642939844 101.1523137635209935  7.5218554110850002
 53.1859975642939844 101.1523137635209935  2.5049004110849999
 54.7502915642939811 98.4428767635209994  7.5218554110850002
 64.1360555642939971 103.8617507635209876  2.5049004110849999
 62.5717584357059948 104.7648982364789845  5.0133779110850005
 64.1360524357060058 102.0554612364789904 10.0303329110850008
 64.1360524357060058 102.0554612364789904  5.0133779110850005
 62.5717584357059948 104.7648982364789845 10.0303329110850008
 64.1360555642939971 103.8617507635209876  7.5218554110850002
 56.3145855642939921 106.5711877635209959  7.5218554110850002
 56.3145855642939921 106.5711877635209959  2.5049004110849999
 57.8788795642940030 103.8617507635209876  7.5218554110850002
 56.3145824357059936 104.7648982364789845 10.0303329110850008
 57.8788795642940030 103.8617507635209876  2.5049004110849999
 56.3145824357059936 104.7648982364789845  5.0133779110850005
 59.4431735642939998 101.1523137635209935  7.5218554110850002
 57.8788764357059904 102.0554612364789904 10.0303329110850008
 59.4431735642939998 101.1523137635209935  2.5049004110849999
 57.8788764357059904 102.0554612364789904  5.0133779110850005
 61.0074675642939965 98.4428767635209994  7.5218554110850002
 59.4431704357059871 99.3460242364789963 10.0303329110850008
 61.0074675642939965 98.4428767635209994  2.5049004110849999
 59.4431704357059871 99.3460242364789963  5.0133779110850005
 61.0074644357059981 96.6365872364789738 10.0303329110850008
 61.0074644357059981 96.6365872364789738  5.0133779110850005
 61.0074644357059839 102.0554612364789904 10.0303329110850008
 62.5717615642940217 101.1523137635209935  2.5049004110849999
 61.0074644357059839 102.0554612364789904  5.0133779110850005
 64.1360555642940255 98.4428767635209994  7.5218554110850002
 62.5717615642940217 101.1523137635209935  7.5218554110850002
 62.5717584357059806 99.3460242364789963 10.0303329110850008
 64.1360555642940255 98.4428767635209994  2.5049004110849999
 62.5717584357059806 99.3460242364789963  5.0133779110850005
 59.4431704357059871 104.7648982364789845  5.0133779110850005
 61.0074675642940250 103.8617507635209876  2.5049004110849999
 59.4431735642940140 106.5711877635209959  7.5218554110850002
 57.8788764357060046 107.4743352364789928 10.0303329110850008
 59.4431735642940140 106.5711877635209959  2.5049004110849999
 57.8788764357060046 107.4743352364789928  5.0133779110850005
 61.0074675642940250 103.8617507635209876  7.5218554110850002
 59.4431704357059871 104.7648982364789845 10.0303329110850008
 59.4431735642939998 101.1523137635209935  4.4184974889150004
 59.4431735642940140 106.5711877635209959  9.4354524889150007
 57.8788764357060046 107.4743352364789928  6.9269749889150010
 59.4431735642940140 106.5711877635209959  4.4184974889150004
 57.8788764357060046 107.4743352364789928  1.9100199889150002
 61.0074675642940250 103.8617507635209876  9.4354524889150007
 59.4431704357059871 104.7648982364789845  6.9269749889150010
 61.0074675642940250 103.8617507635209876  4.4184974889150004
 59.4431704357059871 104.7648982364789845  1.9100199889150002
 62.5717615642940217 101.1523137635209935  9.4354524889150007
 61.0074644357059839 102.0554612364789904  6.9269749889150010
 62.5717615642940217 101.1523137635209935  4.4184974889150004
 61.0074644357059839 102.0554612364789904  1.9100199889150002
 64.1360555642940255 98.4428767635209994  9.4354524889150007
 62.5717584357059806 99.3460242364789963  6.9269749889150010
 64.1360555642940255 98.4428767635209994  4.4184974889150004
 62.5717584357059806 99.3460242364789963  1.9100199889150002
 56.3145855642939921 106.5711877635209959  9.4354524889150007
 56.3145855642939921 106.5711877635209959  4.4184974889150004
 57.8788795642940030 103.8617507635209876  9.4354524889150007
 56.3145824357059936 104.7648982364789845  6.9269749889150010
 57.8788795642940030 103.8617507635209876  4.4184974889150004
 56.3145824357059936 104.7648982364789845  1.9100199889150002
 59.4431735642939998 101.1523137635209935  9.4354524889150007
 64.1360555642939971 103.8617507635209876  9.4354524889150007
 62.5717584357059948 104.7648982364789845  6.9269749889150010
 64.1360555642939971 103.8617507635209876  4.4184974889150004
 62.5717584357059948 104.7648982364789845  1.9100199889150002
 64.1360524357060058 102.0554612364789904  6.9269749889150010
 64.1360524357060058 102.0554612364789904  1.9100199889150002
 57.8788764357059904 102.0554612364789904  6.9269749889150010
 57.8788764357059904 102.0554612364789904  1.9100199889150002
 61.0074675642939965 98.4428767635209994  9.4354524889150007
 53.1859975642939844 101.1523137635209935  9.4354524889150007
 53.1859975642939844 101.1523137635209935  4.4184974889150004
 54.7502915642939811 98.4428767635209994  9.4354524889150007
 53.1859944357060144 99.3460242364789963  6.9269749889150010
 54.7502915642939811 98.4428767635209994  4.4184974889150004
 53.1859944357060144 99.3460242364789963  1.9100199889150002
 59.4431704357059871 99.3460242364789963  6.9269749889150010
 61.0074675642939965 98.4428767635209994  4.4184974889150004
 59.4431704357059871 99.3460242364789963  1.9100199889150002
 61.0074644357059981 96.6365872364789738  6.9269749889150010
 61.0074644357059981 96.6365872364789738  1.9100199889150002
 53.1859944357060002 104.7648982364789845  6.9269749889150010
 54.7502915642939811 103.8617507635209876  4.4184974889150004
 53.1859944357060002 104.7648982364789845  1.9100199889150002
 56.3145855642940063 101.1523137635209935  9.4354524889150007
 54.7502884357059969 102.0554612364789904  6.9269749889150010
 56.3145855642940063 101.1523137635209935  4.4184974889150004
 54.7502884357059969 102.0554612364789904  1.9100199889150002
 57.8788795642940030 98.4428767635209994  9.4354524889150007
 56.3145824357059936 99.3460242364789963  6.9269749889150010
 57.8788795642940030 98.4428767635209994  4.4184974889150004
 56.3145824357059936 99.3460242364789963  1.9100199889150002
 59.4431735642940069 95.7334397635209911  9.4354524889150007
 57.8788764357060046 96.6365872364789738  6.9269749889150010
 54.7502915642939811 103.8617507635209876  9.4354524889150007
 59.4431735642940069 95.7334397635209911  4.4184974889150004
 57.8788764357060046 96.6365872364789738  1.9100199889150002
