Al  N 
 1.0000000000000000
   234.6441000000000088    0.0000000000000000    0.0000000000000000
  -117.3220500000000044  203.2077749999999980    0.0000000000000000
     0.0000000000000000    0.0000000000000000   10.0339100000000006
  32  32
Cartesian
 56.3145824357059936 99.3460242364789963 10.0303329110850008
 57.8788795642940030 98.4428767635209994  2.5049004110849999
 56.3145824357059936 99.3460242364789963  5.0133779110850005
 57.8788795642940030 98.4428767635209994  7.5218554110850002
 54.7502884357059969 102.0554612364789904  5.0133779110850005
 54.7502915642939811 103.8617507635209876  7.5218554110850002
 54.7502915642939811 103.8617507635209876  2.5049004110849999
 56.3145855642940063 101.1523137635209935  7.5218554110850002
 54.7502884357059969 102.0554612364789904 10.0303329110850008
 56.3145855642940063 101.1523137635209935  2.5049004110849999
 57.8788795642940030 103.8617507635209876  7.5218554110850002
 56.3145824357059936 104.7648982364789845 10.0303329110850008
 57.8788795642940030 103.8617507635209876  2.5049004110849999
 56.3145824357059936 104.7648982364789845  5.0133779110850005
 59.4431735642939998 101.1523137635209935  7.5218554110850002
 57.8788764357059904 102.0554612364789904 10.0303329110850008
 59.4431735642939998 101.1523137635209935  2.5049004110849999
 57.8788764357059904 102.0554612364789904  5.0133779110850005
 61.0074675642939965 98.4428767635209994  7.5218554110850002
 59.4431704357059871 99.3460242364789963 10.0303329110850008
 61.0074675642939965 98.4428767635209994  2.5049004110849999
 59.4431704357059871 99.3460242364789963  5.0133779110850005
 61.0074644357059839 102.0554612364789904 10.0303329110850008
 62.5717615642940217 101.1523137635209935  2.5049004110849999
 61.0074644357059839 102.0554612364789904  5.0133779110850005
 62.5717615642940217 101.1523137635209935  7.5218554110850002
 62.5717584357059806 99.3460242364789963 10.0303329110850008
 62.5717584357059806 99.3460242364789963  5.0133779110850005
 59.4431704357059871 104.7648982364789845  5.0133779110850005
 61.0074675642940250 103.8617507635209876  2.5049004110849999
 61.0074675642940250 103.8617507635209876  7.5218554110850002
 59.4431704357059871 104.7648982364789845 10.0303329110850008
 59.4431735642939998 101.1523137635209935  4.4184974889150004
 61.0074675642940250 103.8617507635209876  9.4354524889150007
 59.4431704357059871 104.7648982364789845  6.9269749889150010
 61.0074675642940250 103.8617507635209876  4.4184974889150004
 59.4431704357059871 104.7648982364789845  1.9100199889150002
 62.5717615642940217 101.1523137635209935  9.4354524889150007
 61.0074644357059839 102.0554612364789904  6.9269749889150010
 62.5717615642940217 101.1523137635209935  4.4184974889150004
 61.0074644357059839 102.0554612364789904  1.9100199889150002
 62.5717584357059806 99.3460242364789963  6.9269749889150010
 62.5717584357059806 99.3460242364789963  1.9100199889150002
 57.8788795642940030 103.8617507635209876  9.4354524889150007
 56.3145824357059936 104.7648982364789845  6.9269749889150010
 57.8788795642940030 103.8617507635209876  4.4184974889150004
 56.3145824357059936 104.7648982364789845  1.9100199889150002
 59.4431735642939998 101.1523137635209935  9.4354524889150007
 57.8788764357059904 102.0554612364789904  6.9269749889150010
 57.8788764357059904 102.0554612364789904  1.9100199889150002
 61.0074675642939965 98.4428767635209994  9.4354524889150007
 59.4431704357059871 99.3460242364789963  6.9269749889150010
 61.0074675642939965 98.4428767635209994  4.4184974889150004
 59.4431704357059871 99.3460242364789963  1.9100199889150002
 54.7502915642939811 103.8617507635209876  4.4184974889150004
 56.3145855642940063 101.1523137635209935  9.4354524889150007
 54.7502884357059969 102.0554612364789904  6.9269749889150010
 56.3145855642940063 101.1523137635209935  4.4184974889150004
 54.7502884357059969 102.0554612364789904  1.9100199889150002
 57.8788795642940030 98.4428767635209994  9.4354524889150007
 56.3145824357059936 99.3460242364789963  6.9269749889150010
 57.8788795642940030 98.4428767635209994  4.4184974889150004
 56.3145824357059936 99.3460242364789963  1.9100199889150002
 54.7502915642939811 103.8617507635209876  9.4354524889150007
