BoronNitride_SiAtN                      
   1.0000000000000000     
    17.3520000000000003    0.0000000000000000    0.0000000000000000
     0.0000000000000000   15.0272728064999992    0.0000000000000000
     0.0000000000000000    0.0000000000000000   10.6393173196999999
   B    N    Al   Si
    48    47   128     1
Direct
  0.9942048394922574  0.0043756278608277  0.9954606950532985
  0.9951384762865851  0.1714755165945207  0.9924122744871374
  0.9947434937178374  0.3385349992568134  0.0099858434279403
  0.9947700486732437  0.5054710757283624  0.0031215415693190
  0.9945123123997205  0.6727754850041777  0.0035175219174790
  0.9941969201764024  0.8397057011653072  0.9874430457712067
  0.1187953395690561  0.0892094540681484  0.0051565836634440
  0.1193747252232144  0.2559195363495667  0.0047528590832862
  0.1208678124257073  0.4227503095245856  0.0039545106563266
  0.1188967216928628  0.5890239822653076  0.0182364592881318
  0.1194278393967058  0.7554769089098908  0.9995867397318358
  0.1191397247126361  0.9224256087846042  0.9916685001659125
  0.2465449613524235  0.0054428628199003  0.9656439008476047
  0.2450226409863712  0.1716412859196559  0.0277312357537351
  0.2442597497654550  0.3374003317718459  0.9650441779266550
  0.2420015292554584  0.5069961456180769  0.0029197453771790
  0.2468295575469992  0.6734318273755038  0.0354240261361899
  0.2445555307730443  0.8373762041648404  0.9709369620080917
  0.3716813674854055  0.0885335400198678  0.0062146455985109
  0.3721096628738175  0.2566794305873277  0.0165722124570089
  0.3357971818185898  0.4243841082644368  0.0247547586068771
  0.3691462873915549  0.5881565070412762  0.9794431472507529
  0.3707907095442514  0.7568474474446087  0.9853383425323027
  0.3700147769516393  0.9212106777045859  0.0025565649732136
  0.4964293019312181  0.0057326118631207  0.0113634815244870
  0.4963660462609635  0.1690790947593712  0.0189669303658859
  0.5136715629151057  0.3083297731214619  0.0227108089140004
  0.5124587391948863  0.5407099647528013  0.9913331545751775
  0.4953669200668021  0.6734270508891423  0.0204614176349421
  0.4941271934445620  0.8376158708190677  0.0021173019185794
  0.6207508440690730  0.0878703610602451  0.0189715808322339
  0.6239271769691573  0.2548802764301321  0.0141994417517244
  0.6209419020598497  0.4230980712366043  0.9975061349882798
  0.6235627199325692  0.5901426601888434  0.9879114331286232
  0.6205464215699010  0.7543764901425830  0.9524122145539128
  0.6189608071893348  0.9186657262888147  0.0302928163787743
  0.7453780721424252  0.0048518774622358  0.0139685358608349
  0.7460519934440943  0.1730659210554142  0.0387779180718925
  0.7440190115362280  0.3383340954317739  0.9969070314198012
  0.7454493790486346  0.5052539595554857  0.9842779205122452
  0.7453604765408537  0.6712862130407254  0.9944689701383211
  0.7458649868940901  0.8384517186594816  0.0017724479133437
  0.8700769882391214  0.0878022714797364  0.0230593889283950
  0.8704838024169408  0.2548790526020231  0.9913921282849048
  0.8695781614687084  0.4224051847518385  0.9899249912600223
  0.8704472183255519  0.5871792081575133  0.9928836247209348
  0.8711167166327376  0.7568002070400657  0.0018992871006326
  0.8701731854094720  0.9217953357288451  0.0048335543620395
  0.0777986365371984  0.0057999732490080  0.9943175308421206
  0.0783080658196080  0.1727716633407550  0.0063559394729207
  0.0784422930865252  0.3393974602323553  0.9995675472428067
  0.0777582660295075  0.5055619287990764  0.0156511985194865
  0.0771396820031651  0.6721729373536790  0.0081906686919703
  0.0782808917583755  0.8384508198691930  0.9774937761579540
  0.2027470762674125  0.0906146096361504  0.9897221528141393
  0.2025895505801119  0.2572150450931156  0.0147288134535230
  0.2031238872511010  0.4232003427975289  0.9933385869856429
  0.2015011856685418  0.5888097100750821  0.0224783971104320
  0.2016137461837734  0.7568342662648756  0.0210779371336314
  0.2027903380720877  0.9233155318127861  0.0032453461819808
  0.3298035040893332  0.0059757619131915  0.9958675233208019
  0.3301946953676330  0.1729624262796021  0.0111774689382702
  0.3240387673048751  0.3353471231034142  0.0068538457338758
  0.3219607210215636  0.5126112698074927  0.0044842621749052
  0.3259453741782176  0.6723715962663054  0.9735188574083889
  0.3292341746713037  0.8391112040548737  0.9951145929803463
  0.4548812232647651  0.0889707490895609  0.0082294043018000
  0.4556096777101040  0.2482210569649873  0.0307816885447846
  0.4525413505191636  0.5980586344908118  0.9642889085979091
  0.4532022511115527  0.7559280801208905  0.9992958599869374
  0.4535813236611592  0.9223650180441336  0.0115725435337616
  0.5781122952413992  0.0056787891053502  0.0164581915541541
  0.5796740240454478  0.1724351436626576  0.0184970454117632
  0.5876143374369802  0.3364993781311146  0.0085117468013401
  0.5861873180006164  0.5094167938539792  0.9928775686177761
  0.5808361410969377  0.6725741235788472  0.9973100161368855
  0.5761385728125215  0.8391130576514809  0.9760291600559543
  0.7037841962731942  0.0884189844718223  0.0243671998351986
  0.7042051406101175  0.2553602947723153  0.0128647413485715
  0.7034852035148004  0.4222923647920740  0.9878113377636264
  0.7047893174186923  0.5889331855111363  0.9837550238561423
  0.7029037396577226  0.7551690606009762  0.0052715928017486
  0.7030941664537131  0.9218932570142404  0.9886570142669164
  0.8277787497977652  0.0048103272438234  0.0113662177233335
  0.8275960688217679  0.1707236097493647  0.9892486838839335
  0.8280779518680109  0.3378226414050687  0.9982829850590428
  0.8291489605210567  0.5056919894438887  0.9880475136734076
  0.8296121081676973  0.6725636914693898  0.9852654384866940
  0.8283069141595252  0.8384117393364489  0.0078516718852035
  0.9535331467323059  0.0883351983329704  0.0044430095867124
  0.9530036239332058  0.2548403516711182  0.9939317754875561
  0.9531139788594046  0.4223018706975810  0.9915086305632836
  0.9534081233079089  0.5890193153665778  0.0058171550172783
  0.9536031321571470  0.7554335803087848  0.9952079346602040
  0.9529309912125806  0.9219189413813008  0.9947610858410048
  0.0582844402058136  0.0228731842657576  0.7265630864882369
  0.1030861087159947  0.3499113589577425  0.3174760811105697
  0.5685762436244723  0.2650552446675963  0.7055106284949935
  0.6242734585299033  0.8730526841596697  0.2289358175605235
  0.7191146628998444  0.2717983831111777  0.7088264563741622
  0.0003084618496712  0.2175620853601098  0.7532540749453002
  0.5613399389882885  0.7462671241389911  0.3654677276352379
  0.4246699586868197  0.2135768049561827  0.7029266441038129
  0.9241247908287014  0.0789850962494340  0.7019147471864674
  0.7742247346108800  0.1517736543706781  0.2707294104687308
  0.4636128865852891  0.5946269231003202  0.7813169703383440
  0.1186438083415278  0.7509264438898337  0.4971963224352240
  0.8978712854904861  0.5499506662633875  0.6744607397235138
  0.2149808893221896  0.5931729825005145  0.2294403694439300
  0.4896999085749170  0.6291160206367696  0.2241150142577715
  0.8004346298389704  0.4148747551423941  0.6881462229994987
  0.6107552673505197  0.3602421730461280  0.2702283782663257
  0.6902692558333594  0.9239575147609320  0.7963337125544111
  0.9707191001719067  0.7871759871387990  0.4655197895783298
  0.1691051309585182  0.3715328498276445  0.5361503289225398
  0.4014558282992194  0.7767903247410542  0.7186053447136332
  0.1803607157781200  0.9380430830311715  0.6467902414865375
  0.6479517685377013  0.4177997748905893  0.7514549720233974
  0.0808057893969776  0.6664990316065934  0.2755051629081976
  0.8026248479353845  0.8296159651429444  0.7088908350662491
  0.4949087047897481  0.5774070786866217  0.4580144351859022
  0.7334632917560194  0.5669286264542454  0.7068806927904535
  0.3425980771463571  0.1795236750374551  0.2155630507581318
  0.3182680511736540  0.3103043766167231  0.5606576925205211
  0.4529898667617953  0.0612640794363248  0.5600972144461659
  0.4862027219207448  0.4163192286232970  0.7370678902096093
  0.4751038785051656  0.2695621823984685  0.2406309127736942
  0.9426939614635658  0.9359385907447839  0.3080189200078560
  0.7318626538905726  0.8022611747365009  0.3642424218715914
  0.3384171141980256  0.4891554369718933  0.7413461541037887
  0.4148340058240582  0.7320883326524232  0.4205520300779225
  0.8687836249227165  0.0539562710724197  0.4665170980628267
  0.4798025083402261  0.2527217278801095  0.4843927620695770
  0.3585575148170803  0.3343089766718845  0.8196581514206862
  0.5290908159793137  0.7109950360634909  0.6125367112017216
  0.8209617514215335  0.3155787080227649  0.2163128827374839
  0.4806213491269146  0.0947428321853729  0.3067404887025118
  0.4503387967276786  0.9426121254994299  0.7637516494866848
  0.9709139180147444  0.7177142592212967  0.7124591255028185
  0.8311918421860625  0.6789874309536302  0.7837974256802273
  0.8999473473255778  0.2206447591226687  0.3916567201451361
  0.8078795601258323  0.1557216211536576  0.8020859560815528
  0.5549966198727067  0.9539132692470793  0.4074281308898352
  0.6384927282093342  0.8269001804136120  0.5514331752933324
  0.1833977327896029  0.4994536879261421  0.7240926466827329
  0.7999913038338381  0.0001551122208528  0.6859577946342028
  0.6554863293109415  0.7032681623888679  0.1800517294981663
  0.4598914929648263  0.8714855615666059  0.2565066215599775
  0.2922490252387650  0.6536383356714566  0.7812798592082033
  0.5248647383670421  0.1011718486426137  0.7768387315987116
  0.3161872548062155  0.8504974727946329  0.3164889417605736
  0.7524355745943468  0.1537438061105011  0.5244464931192685
  0.3579415716889484  0.5393940316081183  0.3217615589896921
  0.7075377837189870  0.9756637609060249  0.4901329189084378
  0.5584458594318954  0.8270758057088962  0.7850780976218035
  0.6577551201532352  0.0360743521103684  0.2676427505828065
  0.1906887048358182  0.0758729472473497  0.7976960086152874
  0.9275463479802193  0.0956514414073482  0.2300142288665261
  0.9916772345781599  0.6191555370157263  0.5082215724955166
  0.0655561034711981  0.8409236957488242  0.2668069640327359
  0.6821118383054828  0.4532781782430847  0.5084576622822755
  0.2163867419748676  0.2756274683980859  0.2019978250955982
  0.5864213125891179  0.5562596604017596  0.6580717186253827
  0.6801864267483601  0.6578317101153901  0.5000066407670841
  0.2898574630882291  0.1447099548821799  0.6627284990817545
  0.8385371618306841  0.7035493873037398  0.5204004432266363
  0.0382541573389702  0.5535177789996435  0.7614493861066719
  0.3741282140947202  0.6175944910787943  0.5846861067338315
  0.0450047453010119  0.9334617765404505  0.5075007253720687
  0.3513892935789319  0.1571985070005903  0.4459903217300653
  0.2334534131710294  0.8109389055378808  0.7723748253285946
  0.7342756487859136  0.4512720948582230  0.2760903699313657
  0.0590831628094755  0.1878710766082795  0.2883233831502701
  0.1318057621047754  0.1959146259032389  0.6477232881345126
  0.6716403903567497  0.1012063659746050  0.7323604027547860
  0.0289688284622019  0.5019279453779467  0.3134097731366119
  0.7793750001482422  0.6342861582235110  0.2801283563948158
  0.9448744783779071  0.3947946080269296  0.7534114369721717
  0.2242387398204370  0.3076386603532926  0.7552652884734162
  0.7789943277608921  0.3241661779766385  0.4553038001404019
  0.1821301524567024  0.8973107529055671  0.4167706555801564
  0.3528692522974746  0.3485085317328509  0.3142081973348138
  0.6776251625320793  0.7274590778214464  0.7470167929560420
  0.5452482190161522  0.4123760336443851  0.4936488628885411
  0.6070608928006427  0.1902700804506570  0.2775918322890776
  0.5791795635004862  0.9684319713413504  0.6507770691397757
  0.9660096830593790  0.3405780701026755  0.2493506969860998
  0.8727795075634959  0.2581548099182620  0.6336473329305707
  0.9087438570710464  0.4094376250599818  0.4838242875052214
  0.0214247383149353  0.2860482313564246  0.5130966716494475
  0.2071664373165485  0.2235228132640474  0.4329733386060050
  0.2934838750813228  0.8275772254333400  0.5576071072952473
  0.3101803108053898  0.9778403519290635  0.7575865696173605
  0.5963791444342100  0.1130180237257031  0.5085987014217442
  0.2613598670249220  0.6780817019728685  0.4446840848606234
  0.8444837364990985  0.8835145448281896  0.4922428964158428
  0.1428119900422304  0.6730351959575335  0.7179425646642684
  0.8662362410167787  0.7936749528593136  0.2677368652282643
  0.8082049831960479  0.5360020436261849  0.4758280708624846
  0.0786261629021641  0.8342274799062230  0.7425617162753910
  0.6161355938457324  0.5557157378561287  0.3100215961397167
  0.4077085227688899  0.4399168037517372  0.5177683781233594
  0.3398103789581512  0.6945380142898832  0.2165127456288668
  0.9411765183974207  0.9011726305762336  0.6941181226583847
  0.3513981860392865  0.0084782037682693  0.2513309324009221
  0.1402237512643986  0.5754643977317346  0.4794605948641431
  0.2059203375987257  0.9379817216355590  0.1903393068589761
  0.7943066253798776  0.9632828198659003  0.2720893321933951
  0.0747226201306196  0.0164746583228908  0.2779531086732886
  0.2095155420056207  0.1027736878493001  0.2556877561840740
  0.8771918381909360  0.4852809929827815  0.2583880945144844
  0.0405117193288708  0.4590714725540506  0.5586566351163511
  0.0870350911681305  0.3610501977383382  0.7550619847362334
  0.2250200347758320  0.4369917767873363  0.3005193587327928
  0.9340597934842958  0.6437360728792723  0.2810139157524524
  0.3113127923570228  0.9960400885216881  0.4984366739681302
  0.1632097460817431  0.0659058163738466  0.4901150255183284
  0.1994729998608718  0.7635148350424477  0.2248501503097751
  0.6386654278635077  0.2767817583712540  0.4867732369750414
  0.0124556864760110  0.1094608438776591  0.5036154347960288
  0.4385715185296474  0.8870610610697716  0.5231742084356201
  0.2699599877143127  0.4989602001983504  0.5197593033717297
  0.4845461540351116  0.4511929343585506  0.2501978772507718
  0.4532820458517063  0.4261305248542482  0.0495363419013853

  0.13421407E-03 -0.20034577E-04 -0.67439042E-03
  0.35883310E-03  0.19491926E-03  0.32879602E-03
  0.37837671E-03  0.59516547E-04  0.70963808E-03
  0.38251971E-03  0.30867526E-03  0.23609029E-03
  0.58469279E-03 -0.60266314E-03 -0.63791039E-03
  0.40401607E-03 -0.63206742E-03  0.95444228E-03
 -0.73525358E-03  0.16370548E-04 -0.91452017E-03
 -0.20077304E-03 -0.44626935E-03  0.17498852E-02
 -0.73838719E-03 -0.14298640E-03  0.84197492E-03
 -0.54246977E-03  0.29325122E-03  0.31797851E-03
 -0.19094130E-03 -0.74902743E-03 -0.13158946E-02
 -0.57458330E-04 -0.26251773E-03 -0.11558467E-02
  0.74043295E-03  0.42357753E-03  0.42180103E-03
  0.27372746E-06 -0.62712897E-04  0.32085997E-03
 -0.10488487E-01 -0.70188917E-02 -0.48915918E-02
 -0.11339389E-01  0.67726710E-02 -0.21831250E-03
  0.23667292E-03  0.34459683E-03  0.23740851E-02
  0.35650141E-03  0.23407545E-03 -0.19060389E-03
  0.44437726E-03 -0.24255037E-03  0.16307439E-02
 -0.91622820E-03 -0.20328623E-02 -0.50497123E-03
 -0.40320995E-01 -0.32415657E-02  0.65861552E-02
 -0.33323395E-04  0.21790927E-02 -0.14278735E-02
  0.89739157E-04  0.39207090E-03  0.10621051E-02
  0.38945507E-03  0.55032092E-03  0.13159553E-02
 -0.11974495E-03 -0.96568270E-03 -0.24588555E-02
 -0.66516623E-04 -0.14661317E-01 -0.89069183E-03
  0.16024335E-01 -0.32202893E-01 -0.60499730E-02
  0.18054966E-01  0.32925772E-01 -0.11386724E-01
  0.86723813E-04  0.77311904E-02  0.17733023E-02
 -0.45047542E-03  0.88014294E-03  0.27818026E-03
  0.97738869E-03 -0.59202701E-03  0.67340416E-03
  0.11553943E-01 -0.76169816E-02 -0.13844706E-02
  0.26294319E-02 -0.12615162E-02 -0.13364736E-02
  0.12482718E-01  0.71537343E-02 -0.88852212E-03
  0.35334518E-03  0.13146088E-02  0.52110069E-03
  0.67190892E-03  0.62507247E-03 -0.50393472E-03
  0.60995449E-03 -0.33526347E-03 -0.63490517E-03
  0.24384288E-04 -0.34638382E-03 -0.16866444E-02
  0.65129101E-03 -0.51899823E-03 -0.15761933E-02
  0.56256672E-03 -0.23522407E-03 -0.11463325E-02
  0.89905822E-03  0.78471855E-03  0.20421796E-04
  0.49513366E-03  0.13143594E-03  0.46202647E-04
  0.17815678E-03 -0.80427675E-04 -0.13857135E-02
  0.36867277E-03 -0.31971996E-03  0.14461964E-02
  0.69021521E-03 -0.39579356E-03  0.64976482E-03
  0.76928231E-03 -0.63262751E-04  0.55123298E-03
  0.78455038E-03 -0.53613753E-03  0.11669597E-02
 -0.82600602E-05 -0.32215895E-03 -0.40026597E-03
 -0.14945849E-03 -0.34076092E-03  0.10336256E-02
  0.56724650E-04  0.17706601E-03 -0.33238821E-03
  0.42632447E-03 -0.11686112E-03 -0.68507717E-03
  0.19426796E-03  0.72085551E-04 -0.25660471E-03
 -0.14730549E-03 -0.18406557E-03  0.12453650E-02
  0.16576488E-03 -0.52443321E-03  0.22671313E-02
 -0.72301341E-03  0.36986854E-03 -0.12515118E-02
 -0.23060258E-02 -0.83693291E-03  0.10734010E-02
 -0.26419440E-03  0.47627922E-04  0.11128400E-02
 -0.30822766E-02  0.14773085E-02 -0.25180186E-03
 -0.42923426E-03  0.19013361E-03  0.26289595E-03
 -0.62378434E-03  0.44908350E-03 -0.47580793E-03
  0.45192693E-03  0.22629260E-03  0.59035102E-03
  0.16186518E-03 -0.11298313E-02  0.10336516E-02
 -0.20224290E-01 -0.18562539E-01 -0.61901049E-02
 -0.18638390E-01  0.17641150E-01 -0.64963102E-02
  0.22348101E-03  0.88657384E-03  0.13170181E-02
  0.60473166E-03  0.82886713E-03  0.10316665E-02
  0.36781278E-03 -0.38769548E-02 -0.10040009E-02
 -0.52209794E-02 -0.26195280E-01 -0.33113069E-02
 -0.69099371E-02  0.24407909E-01 -0.11310291E-01
 -0.24542960E-04  0.27764512E-02  0.12062756E-02
  0.10379994E-03  0.19739904E-03 -0.79977342E-03
 -0.19573444E-03  0.54400614E-03  0.65755913E-03
  0.36296184E-03 -0.47182991E-03 -0.63418840E-03
  0.25901364E-01 -0.79656334E-02 -0.63831719E-02
  0.24217740E-01  0.55485821E-02 -0.40939887E-02
  0.11932067E-02  0.31832843E-03 -0.15913369E-02
 -0.95162376E-04 -0.64213778E-03  0.28501646E-02
  0.56490980E-03 -0.16758224E-03 -0.12081969E-02
  0.26227186E-02 -0.14714479E-02  0.17810286E-03
  0.51019452E-03  0.70195641E-04  0.81754347E-03
  0.30493536E-02  0.16865109E-02 -0.68226608E-03
  0.50539036E-03  0.32675735E-03 -0.10924626E-02
  0.84559725E-03  0.77175597E-04 -0.17968979E-03
  0.64912678E-03  0.87824472E-04  0.42482443E-03
 -0.30435888E-03 -0.51743031E-03 -0.31616606E-03
  0.30048110E-04 -0.39632708E-03 -0.23473548E-03
  0.64958005E-03  0.58461783E-05 -0.11371583E-04
  0.64264649E-03  0.97288180E-05 -0.12139225E-03
  0.53008025E-03 -0.14087858E-03 -0.94475008E-03
  0.23861382E-03 -0.15766607E-03  0.12685240E-02
  0.17556166E-03  0.75811961E-04 -0.56541646E-03
  0.34795251E-03  0.37819605E-03  0.20308809E-03
  0.37354591E-03  0.93223515E-04 -0.11137731E-02
  0.45737838E-03 -0.19053912E-03  0.16135821E-02
  0.19542099E-03 -0.72455767E-04 -0.18814716E-03
  0.72778394E-03  0.92915261E-03 -0.18086364E-03
  0.46844176E-03  0.49412395E-03  0.12542724E-03
 -0.22962949E-03 -0.39223117E-03  0.14400778E-04
 -0.12808874E-02  0.53005766E-03 -0.40826407E-03
  0.94522594E-03 -0.79682985E-03 -0.14704804E-03
 -0.27788172E-03  0.21942448E-03  0.51264549E-03
  0.89376529E-03  0.41821888E-03  0.10289145E-02
 -0.20205937E-03 -0.88845749E-03  0.72051544E-03
 -0.18711321E-05  0.16601599E-03 -0.15955014E-03
  0.39039179E-03  0.12041979E-03 -0.33276496E-03
 -0.17008052E-02  0.51045848E-03 -0.15117100E-02
 -0.35757529E-03  0.92182277E-03  0.97754178E-03
 -0.42530890E-03  0.34545544E-03  0.99651298E-03
 -0.73303421E-03  0.27207608E-03 -0.16735568E-03
 -0.38247014E-02  0.21312234E-02  0.49502187E-03
  0.48676691E-03 -0.13513296E-02 -0.97847342E-03
  0.20348545E-03  0.98465266E-03  0.33344340E-03
  0.19799187E-03 -0.10892387E-02 -0.16763035E-03
 -0.10923944E-02 -0.39829177E-03 -0.40107724E-03
 -0.37754288E-04  0.22115549E-03 -0.36694697E-03
  0.16951949E-02  0.66833719E-04  0.93079043E-03
  0.10142565E-03 -0.10484643E-02  0.18951559E-03
 -0.43874544E-03 -0.54403949E-03  0.16997265E-03
 -0.10299250E-02 -0.97342612E-04  0.11466843E-02
 -0.94194067E-03  0.86181894E-03 -0.15784301E-03
  0.19042152E-02  0.75770363E-03 -0.11443316E-02
 -0.77138387E-03 -0.10682600E-02 -0.15257666E-02
 -0.88429067E-03 -0.24164970E-03 -0.12567681E-02
 -0.52187322E-03  0.28876043E-03  0.21076524E-03
 -0.32094032E-03 -0.36712135E-03  0.57499362E-03
  0.37682658E-03  0.20256062E-03  0.18498029E-02
 -0.44031958E-03 -0.44362157E-03 -0.41921922E-03
  0.85017672E-03 -0.28615062E-04 -0.13909512E-03
 -0.42014746E-03 -0.47809402E-03 -0.33766864E-03
 -0.41557805E-03  0.19348629E-03 -0.45102350E-04
  0.48201249E-03  0.30526719E-03  0.20131735E-03
  0.29431356E-03 -0.10355857E-02 -0.43233173E-03
  0.52429334E-03  0.33688394E-03  0.92238528E-03
  0.13590164E-02  0.81452096E-03 -0.20830603E-04
 -0.19703053E-02  0.42572968E-03 -0.39723357E-03
 -0.76443596E-03  0.82574683E-03  0.85402691E-03
 -0.16720738E-03 -0.45313094E-03  0.20176267E-03
 -0.97408268E-03  0.10200678E-02  0.20172829E-03
 -0.18823113E-03  0.10751926E-03 -0.68452510E-03
 -0.27191456E-03 -0.49300124E-03  0.14151625E-02
 -0.27484088E-03  0.48529555E-03  0.81579473E-03
  0.32813818E-03 -0.19194647E-03  0.82552123E-03
  0.55840976E-04  0.65387569E-03  0.34114912E-03
  0.34185225E-03 -0.69863779E-03  0.87033862E-03
  0.16626508E-03  0.10234123E-02  0.39789470E-03
  0.25030524E-03  0.38083611E-03 -0.44449026E-03
 -0.91993512E-03 -0.53766551E-03  0.11832480E-02
  0.13739008E-02 -0.28728899E-03  0.10132664E-02
 -0.46541836E-03 -0.60237290E-03  0.22399410E-04
 -0.29184418E-03  0.19041032E-03  0.22850336E-03
  0.30509408E-03 -0.26368121E-03 -0.36903989E-03
 -0.26710380E-03 -0.33849710E-03 -0.41149106E-03
  0.69017097E-03  0.10773524E-03 -0.10744250E-02
  0.66084552E-03  0.40253833E-03  0.81292747E-03
 -0.44057250E-03 -0.77584200E-03 -0.68994944E-03
  0.16258583E-03 -0.41710064E-03  0.76630635E-03
 -0.66548989E-04  0.12008750E-02  0.82334980E-04
  0.25756590E-03  0.22126931E-03  0.41198376E-03
  0.20900381E-03 -0.12646537E-04 -0.78109862E-03
 -0.18343984E-03 -0.48682558E-03  0.78113180E-03
  0.61606612E-03  0.19121779E-02  0.42960332E-03
 -0.48672195E-03 -0.17983752E-03 -0.33996574E-03
  0.16558826E-03  0.43286730E-04  0.74515135E-03
  0.18656785E-03 -0.14253416E-02 -0.62893879E-03
 -0.34139223E-03  0.35260726E-03 -0.94924180E-03
 -0.51585667E-03  0.22191573E-03 -0.11223527E-02
  0.68204217E-04 -0.11277379E-02 -0.48082431E-03
  0.29154445E-03  0.20351688E-03  0.13577086E-04
  0.10456813E-03  0.46140408E-03 -0.29660338E-03
 -0.39629428E-03  0.96397509E-03 -0.95955461E-04
 -0.37301109E-03 -0.53855386E-03 -0.39241768E-03
  0.10149610E-02  0.11713703E-02 -0.15212063E-02
  0.11737076E-03  0.68215468E-03 -0.44713728E-03
 -0.50836617E-03  0.62094337E-03  0.46830965E-03
 -0.56306040E-03 -0.49423690E-03  0.24918357E-03
 -0.44289103E-04  0.22208407E-03 -0.23502510E-03
 -0.14103068E-02  0.14202363E-03 -0.83733440E-03
 -0.14813044E-03  0.28285888E-03 -0.11466288E-02
 -0.21791518E-05  0.43851490E-03 -0.12336166E-03
 -0.59394432E-03  0.16265576E-03  0.29107401E-03
  0.40546362E-03  0.43695240E-03 -0.10301273E-02
 -0.64611726E-03 -0.27666510E-03  0.35546295E-03
 -0.54532011E-03 -0.96525397E-03 -0.60726758E-03
  0.67466866E-03 -0.31253036E-03 -0.65113900E-04
  0.17007193E-02  0.12213071E-02 -0.17795106E-03
 -0.74557778E-04  0.22619719E-03 -0.45835250E-03
 -0.28829735E-03 -0.26615181E-03  0.21133418E-03
  0.10675809E-03 -0.57635807E-03  0.28589955E-03
  0.18337030E-02 -0.12560693E-02 -0.88500609E-03
  0.83297364E-03  0.13680434E-04 -0.11589766E-03
  0.26803853E-03  0.48981074E-03  0.19740942E-02
 -0.14507162E-04 -0.11387798E-02 -0.11597887E-03
 -0.84524477E-03  0.14099571E-03 -0.17272651E-03
 -0.75552195E-03 -0.20390345E-03 -0.28745751E-03
  0.33272102E-03  0.63784039E-03  0.13101886E-03
 -0.66910774E-03  0.12839881E-03 -0.48762046E-03
 -0.51308730E-03  0.25143331E-03 -0.15125983E-02
  0.17296660E-03  0.59732609E-03 -0.55474727E-03
  0.71438378E-03  0.33327435E-04  0.21718901E-03
  0.76294712E-03 -0.25741130E-03  0.25654211E-03
  0.23947025E-02 -0.97606108E-03  0.31740560E-04
  0.15663891E-03  0.35733285E-03  0.66789644E-03
 -0.60570804E-03 -0.96347629E-03 -0.73027203E-03
  0.39373942E-04 -0.26567517E-03  0.41944197E-03
 -0.20442487E-02  0.14536498E-02  0.13149550E-02
 -0.22277990E-03 -0.46240778E-03  0.84942667E-04
  0.27456177E-03  0.34326352E-03  0.40139644E-03
 -0.43125868E-03 -0.40503941E-03 -0.16666392E-03
  0.12194493E-02  0.19088539E-03  0.54040035E-03
  0.51470664E-03 -0.59904672E-03  0.23216148E-03
 -0.37683770E-04  0.24231104E-04  0.57677099E-03
  0.74066404E-03 -0.12296342E-02 -0.35308218E-03
  0.21530264E-03  0.22602744E-04 -0.23849451E-03
  0.50369291E-03 -0.15290814E-03  0.33150788E-04
 -0.65231580E-03  0.43174160E-03  0.62367713E-03
 -0.12181766E-02 -0.68952489E-03 -0.42225689E-03
 -0.36969235E-03  0.18923657E-03 -0.75454520E-03
  0.55516241E-03 -0.15648016E-04 -0.91998694E-03
  0.81614652E-05  0.25447775E-03  0.81228245E-03
 -0.32417573E-03  0.53551515E-03 -0.45037381E-03
  0.19133652E-03 -0.42495975E-03  0.55717947E-04
  0.20062015E-03  0.10076465E-02 -0.79529761E-04
  0.24145637E-02  0.36354663E-02  0.17823961E-01
 -0.38587358E-02 -0.93738869E-03  0.57008249E-02

           1
  0.54731196234688684     
  0.67008696E+00 -0.22012822E-01 -0.80241981E-03  0.00000000E+00
  0.99420907E+00  0.43748982E-02  0.99542600E+00
  0.99514979E+00  0.17148262E+00  0.99242919E+00
  0.99475543E+00  0.33853717E+00  0.10022349E-01
  0.99478211E+00  0.50548232E+00  0.31336866E-02
  0.99453075E+00  0.67275354E+00  0.34847063E-02
  0.99420966E+00  0.83968268E+00  0.98749214E+00
  0.11877215E+00  0.89210050E-01  0.51095386E-02
  0.11936839E+00  0.25590328E+00  0.48428774E-02
  0.12084452E+00  0.42274510E+00  0.39978239E-02
  0.11887961E+00  0.58903466E+00  0.18252817E-01
  0.11942182E+00  0.75544963E+00  0.99951905E+00
  0.11913791E+00  0.92241605E+00  0.99160904E+00
  0.24656832E+00  0.54582900E-02  0.96566560E+00
  0.24502265E+00  0.17163900E+00  0.27747742E-01
  0.24392892E+00  0.33714470E+00  0.96479254E+00
  0.24164387E+00  0.50724281E+00  0.29085149E-02
  0.24683702E+00  0.67344438E+00  0.35546155E-01
  0.24456678E+00  0.83738473E+00  0.97092716E+00
  0.37169538E+00  0.88524706E-01  0.62985350E-02
  0.37208076E+00  0.25660539E+00  0.16546236E-01
  0.33452539E+00  0.42426605E+00  0.25093566E-01
  0.36914524E+00  0.58823587E+00  0.97936969E+00
  0.37079354E+00  0.75686173E+00  0.98539298E+00
  0.37002706E+00  0.92123072E+00  0.26242609E-02
  0.49642552E+00  0.56974405E-02  0.11236992E-01
  0.49636395E+00  0.16854511E+00  0.18921111E-01
  0.51417700E+00  0.30715690E+00  0.22399584E-01
  0.51302822E+00  0.54190916E+00  0.99074739E+00
  0.49536966E+00  0.67370863E+00  0.20552641E-01
  0.49411298E+00  0.83764793E+00  0.21316122E-02
  0.62078167E+00  0.87848799E-01  0.19006222E-01
  0.62429161E+00  0.25460286E+00  0.14128221E-01
  0.62102484E+00  0.42305213E+00  0.99743738E+00
  0.62395645E+00  0.59040321E+00  0.98786573E+00
  0.62055757E+00  0.75442437E+00  0.95243902E+00
  0.61898200E+00  0.91868849E+00  0.30266893E-01
  0.74539731E+00  0.48396667E-02  0.13935875E-01
  0.74605276E+00  0.17305331E+00  0.38691153E-01
  0.74403955E+00  0.33831519E+00  0.99682595E+00
  0.74546712E+00  0.50524539E+00  0.98421895E+00
  0.74538883E+00  0.67131479E+00  0.99447002E+00
  0.74588060E+00  0.83845651E+00  0.17748247E-02
  0.87008261E+00  0.87799342E-01  0.22988105E-01
  0.87049543E+00  0.25486741E+00  0.99146652E+00
  0.86959993E+00  0.42239077E+00  0.98995842E+00
  0.87047148E+00  0.58717690E+00  0.99291198E+00
  0.87114146E+00  0.75678068E+00  0.19593183E-02
  0.87017292E+00  0.92178360E+00  0.48129637E-02
  0.77793922E-01  0.57875623E-02  0.99437070E+00
  0.78309855E-01  0.17277811E+00  0.63388406E-02
  0.78455740E-01  0.33939320E+00  0.99953231E+00
  0.77764394E-01  0.50556455E+00  0.15637998E-01
  0.77135036E-01  0.67216623E+00  0.82547332E-02
  0.78286120E-01  0.83843172E+00  0.97761040E+00
  0.20272427E+00  0.90628081E-01  0.98965777E+00
  0.20251681E+00  0.25718456E+00  0.14784032E-01
  0.20311555E+00  0.42320208E+00  0.99339583E+00
  0.20140397E+00  0.58886352E+00  0.22465444E-01
  0.20160021E+00  0.75684119E+00  0.21091461E-01
  0.20277066E+00  0.92333189E+00  0.32208695E-02
  0.32981776E+00  0.59840038E-02  0.99589789E+00
  0.33019980E+00  0.17292128E+00  0.11230642E-01
  0.32340086E+00  0.33467105E+00  0.65354119E-02
  0.32137283E+00  0.51325378E+00  0.41500764E-02
  0.32595242E+00  0.67240389E+00  0.97358661E+00
  0.32925325E+00  0.83914139E+00  0.99516766E+00
  0.45489282E+00  0.88829546E-01  0.81777561E-02
  0.45544500E+00  0.24726699E+00  0.30611347E-01
  0.45232340E+00  0.59894760E+00  0.96370708E+00
  0.45320148E+00  0.75602920E+00  0.99935791E+00
  0.45358460E+00  0.92237221E+00  0.11531401E-01
  0.57810612E+00  0.56986025E-02  0.16492018E-01
  0.57968547E+00  0.17241796E+00  0.18464421E-01
  0.58843131E+00  0.33620926E+00  0.81833812E-02
  0.58695119E+00  0.50961888E+00  0.99266696E+00
  0.58087378E+00  0.67258572E+00  0.99722815E+00
  0.57613557E+00  0.83908967E+00  0.97617578E+00
  0.70380201E+00  0.88412881E-01  0.24305047E-01
  0.70428787E+00  0.25530670E+00  0.12873903E-01
  0.70350130E+00  0.42229492E+00  0.98785339E+00
  0.70488550E+00  0.58899461E+00  0.98371993E+00
  0.70291968E+00  0.75518096E+00  0.52153939E-02
  0.70312084E+00  0.92189607E+00  0.98864777E+00
  0.82779922E+00  0.48135259E-02  0.11388072E-01
  0.82758647E+00  0.17070476E+00  0.98923242E+00
  0.82807890E+00  0.33780821E+00  0.99827091E+00
  0.82916945E+00  0.50569220E+00  0.98804693E+00
  0.82963238E+00  0.67256405E+00  0.98525919E+00
  0.82832363E+00  0.83840661E+00  0.78030717E-02
  0.95354067E+00  0.88329456E-01  0.45082655E-02
  0.95300916E+00  0.25484311E+00  0.99390269E+00
  0.95312495E+00  0.42231565E+00  0.99151908E+00
  0.95341991E+00  0.58902271E+00  0.57598599E-02
  0.95361756E+00  0.75542664E+00  0.99529094E+00
  0.95293716E+00  0.92191630E+00  0.99475141E+00
  0.58307396E-01  0.22907025E-01  0.72655378E+00
  0.10310088E+00  0.34992936E+00  0.31748253E+00
  0.56856900E+00  0.26504096E+00  0.70551137E+00
  0.62423306E+00  0.87307199E+00  0.22891482E+00
  0.71914448E+00  0.27176936E+00  0.70881889E+00