2x2x4           This is a comment line
 0               Automatic generation of k-points
Monkhorst        M use Monkhorst Pack
2 2 4           grid
 .0 .0 .0        shift

