BoronNitride
   1.00000000000000
   20.0000     0.0      0.0
   0.0     20.00000      0.0
   0.0      0.0     9.8241920471190003
  B   N   Al
  48   48  155 
Cartesian 
13.1814 9.00571 0.195973
12.618 11.0951 1.42293
11.0844 12.6209 0.197512
8.99398 13.1798 1.42521
6.90569 12.6153 0.19813
5.37695 11.0849 1.42373
4.81732 8.99488 0.196003
5.3821 6.90544 1.42334
6.91534 5.37904 0.197821
9.0058 4.81946 1.42497
11.0947 5.38426 0.197481
12.6243 6.91444 1.42314
13.1816 9.00511 2.652
12.6173 11.0942 3.879
11.0839 12.621 2.65291
8.99508 13.1802 3.88135
6.90608 12.6149 2.65365
5.37792 11.0842 3.88032
4.8174 8.99551 2.65234
5.38261 6.90635 3.87937
6.91597 5.3791 2.65318
9.00472 4.81924 3.88112
11.0943 5.38471 2.65298
12.6231 6.91508 3.87958
13.1814 9.00571 5.10807
12.618 11.0951 6.33503
11.0844 12.6209 5.10961
8.99398 13.1798 6.3373
6.90569 12.6153 5.11023
5.37695 11.0849 6.33582
4.81732 8.99489 5.1081
5.38207 6.90547 6.33544
6.91526 5.37911 5.11
9.0058 4.81946 6.33706
11.0947 5.38427 5.10959
12.6243 6.91445 6.33524
13.1816 9.00512 7.5641
12.6173 11.0942 8.79109
11.0839 12.621 7.56501
8.99509 13.1802 8.79345
6.90608 12.6149 7.56575
5.37791 11.0842 8.79241
4.81742 8.9955 7.56424
5.38262 6.90635 8.79147
6.91593 5.3791 7.56527
9.00469 4.81914 8.7932
11.0944 5.3847 7.56508
12.6231 6.91508 8.79169
12.985 10.445 0.195793
11.7276 12.2425 1.42474
9.74046 13.1717 0.197656
7.55496 12.9827 1.42553
5.75685 11.7266 0.196568
4.82581 9.74121 1.42369
5.01518 7.55562 0.196155
6.27285 5.75852 1.42499
8.259 4.82675 0.197412
10.4448 5.01814 1.425
12.244 6.27259 0.195969
13.1734 8.2592 1.42365
12.984 10.4446 2.65039
11.7264 12.2415 3.88141
9.74005 13.1714 2.65244
7.5558 12.9814 3.88241
5.75741 11.7259 2.65191
4.82625 9.74063 3.88082
5.01638 7.55626 2.65075
6.27395 5.75941 3.88173
8.25929 4.82726 2.65214
10.4441 5.01939 3.88191
12.2438 6.27312 2.65116
13.1728 8.25972 3.8808
12.985 10.445 5.10789
11.7276 12.2425 6.33684
9.74045 13.1717 5.10975
7.55495 12.9827 6.33763
5.75685 11.7266 5.10866
4.82581 9.74121 6.33579
5.01517 7.55561 5.10826
6.27281 5.75854 6.33709
8.259 4.82681 5.10949
10.4448 5.01813 6.3371
12.244 6.2726 5.10808
13.1734 8.25919 6.33574
12.984 10.4446 7.56249
11.7264 12.2415 8.7935
9.74005 13.1714 7.56454
7.5558 12.9814 8.79451
5.75741 11.7259 7.564
4.82624 9.74063 8.79292
5.01637 7.55626 7.56285
6.27396 5.75941 8.79379
8.25927 4.82717 7.56424
10.4441 5.01934 8.79395
12.2438 6.27312 7.56325
13.1728 8.25972 8.79289
10.584	19.426	2.309
8.265	14.476	4.204
10.026	1.447	8.086
11.820	5.650	3.452
7.583	3.883	5.522
12.983	3.000	0.257
19.458	15.354	0.018
9.355	16.059	7.246
1.416	19.621	1.344
4.741	1.428	1.385
7.446	15.245	9.621
18.907	9.370	7.556
14.055	15.631	4.239
15.431	9.807	9.015
19.599	2.572	9.242
6.123	2.865	0.451
2.503	6.633	7.726
15.251	7.603	2.884
12.998	10.884	5.494
15.723	9.616	4.520
16.481	3.745	4.197
16.628	19.206	3.681
12.729	17.957	9.212
12.288	3.092	9.436
17.096	1.579	8.250
17.579	13.953	8.014
8.758	19.927	0.184
17.782	5.835	2.441
4.383	18.177	0.001
6.796	1.544	3.195
15.877	12.182	2.119
19.728	15.521	8.322
16.961	16.196	5.059
11.526	16.413	1.287
8.664	1.233	5.655
13.946	15.543	7.146
2.600	8.174	4.430
12.451	13.278	8.218
12.088	18.150	3.185
13.472	5.882	8.570
19.597	14.217	6.396
3.344	19.811	2.157
6.037	17.773	6.321
5.535	3.339	6.084
19.800	16.157	3.619
8.838	14.645	2.095
4.734	18.655	3.840
15.458	8.533	0.745
2.783	17.079	5.700
6.115	19.897	8.676
17.077	1.000	5.668
19.392	6.254	7.668
19.997	11.279	5.301
17.632	18.217	0.050
1.538	15.207	7.486
2.640	19.778	8.190
14.700	6.994	4.948
5.790	16.652	3.441
13.873	12.967	0.088
15.792	10.477	6.826
19.025	10.833	9.729
11.963	15.914	6.297
3.878	2.186	8.333
5.297	13.488	2.626
13.374	13.388	5.323
19.010	2.361	2.660
3.999	10.624	2.514
13.886	15.282	0.109
18.700	7.971	0.502
11.591	13.840	1.836
4.964	5.499	6.455
5.201	11.126	4.276
13.551	13.707	2.927
4.342	11.887	7.593
17.572	4.444	0.341
17.857	10.670	3.353
16.139	12.270	4.400
19.837	3.175	0.354
10.331	15.636	4.680
15.432	5.629	1.050
12.780	6.233	0.000
7.339	14.343	7.248
9.252	1.002	1.858
4.209	9.169	0.014
18.877	5.464	4.831
4.705	6.605	8.913
15.984	2.174	0.180
17.560	8.159	2.668
15.863	18.792	6.396
14.022	17.736	5.675
19.634	19.791	2.120
13.949	4.465	2.792
1.087	5.393	3.528
8.283	18.209	5.921
10.922	3.718	0.042
11.395	12.820	4.388
15.473	16.829	8.079
5.722	13.899	9.812
4.067	1.457	5.538
10.148	3.954	4.467
14.141	5.140	5.941
8.006	14.488	0.042
3.403	13.947	6.389
11.710	1.822	4.708
7.170	16.480	0.032
7.827	2.928	8.306
17.457	14.589	2.606
19.180	18.252	3.597
16.550	5.129	8.406
3.705	17.158	8.016
11.576	18.339	6.263
11.779	3.774	6.010
18.942	11.975	7.101
13.674	8.007	9.042
15.680	1.837	2.305
9.483	13.360	8.920
18.779	11.420	0.962
1.911	2.465	3.833
2.298	14.545	2.689
16.700	10.980	0.005
2.688	12.833	1.152
12.995	7.539	6.565
8.264	19.238	2.448
18.854	13.933	4.147
11.294	3.374	2.690
17.623	8.147	8.997
9.514	17.209	3.254
3.002	8.988	6.420
1.794	11.277	7.632
18.424	16.957	6.880
7.385	17.309	8.173
1.535	8.664	0.613
4.310	7.269	1.663
1.158	10.611	3.703
17.395	4.875	6.333
5.438	15.212	7.923
5.720	1.000	9.818
19.558	2.829	6.825
3.403	16.446	2.607
12.885	19.468	1.043
10.346	17.998	8.034
13.419	10.465	0.921
5.047	13.966	4.729
15.438	13.035	6.740
14.649	2.214	6.950
8.850	3.836	1.758
4.917	14.690	0.517
18.883	18.334	8.773
16.087	16.808	2.305
1.262	18.284	3.206
15.837	8.090	7.557
1.603	8.400	8.644
16.955	14.729	0.089
14.112	17.563	0.680
17.767	7.798	5.799
