BoronNitride
   1.00000000000000
   26.028     0.0      0.0
   0.0     25.0454546774      0.0
   0.0      0.0     15.8401313522
  B  N Al
 120  120  500 
Cartesian 
0.0	0.0	0 
0.0	2.50454546774	0 
0.0	5.00909093549	0 
0.0	7.51363640323	0 
0.0	10.018181871	0 
0.0	12.5227273387	0 
0.0	15.0272728065	0 
0.0	17.5318182742	0 
0.0	20.036363742	0 
0.0	22.5409092097	0 
2.169	1.25227273387	0 
2.169	3.75681820162	0 
2.169	6.26136366936	0 
2.169	8.76590913711	0 
2.169	11.2704546049	0 
2.169	13.7750000726	0 
2.169	16.2795455403	0 
2.169	18.7840910081	0 
2.169	21.2886364758	0 
2.169	23.7931819436	0 
4.338	0.0	0 
4.338	2.50454546774	0 
4.338	5.00909093549	0 
4.338	7.51363640323	0 
4.338	10.018181871	0 
4.338	12.5227273387	0 
4.338	15.0272728065	0 
4.338	17.5318182742	0 
4.338	20.036363742	0 
4.338	22.5409092097	0 
6.507	1.25227273387	0 
6.507	3.75681820162	0 
6.507	6.26136366936	0 
6.507	8.76590913711	0 
6.507	11.2704546049	0 
6.507	13.7750000726	0 
6.507	16.2795455403	0 
6.507	18.7840910081	0 
6.507	21.2886364758	0 
6.507	23.7931819436	0 
8.676	0.0	0 
8.676	2.50454546774	0 
8.676	5.00909093549	0 
8.676	7.51363640323	0 
8.676	10.018181871	0 
8.676	12.5227273387	0 
8.676	15.0272728065	0 
8.676	17.5318182742	0 
8.676	20.036363742	0 
8.676	22.5409092097	0 
10.845	1.25227273387	0 
10.845	3.75681820162	0 
10.845	6.26136366936	0 
10.845	8.76590913711	0 
10.845	11.2704546049	0 
10.845	13.7750000726	0 
10.845	16.2795455403	0 
10.845	18.7840910081	0 
10.845	21.2886364758	0 
10.845	23.7931819436	0 
13.014	0.0	0 
13.014	2.50454546774	0 
13.014	5.00909093549	0 
13.014	7.51363640323	0 
13.014	10.018181871	0 
13.014	12.5227273387	0 
13.014	15.0272728065	0 
13.014	17.5318182742	0 
13.014	20.036363742	0 
13.014	22.5409092097	0 
15.183	1.25227273387	0 
15.183	3.75681820162	0 
15.183	6.26136366936	0 
15.183	8.76590913711	0 
15.183	11.2704546049	0 
15.183	13.7750000726	0 
15.183	16.2795455403	0 
15.183	18.7840910081	0 
15.183	21.2886364758	0 
15.183	23.7931819436	0 
17.352	0.0	0 
17.352	2.50454546774	0 
17.352	5.00909093549	0 
17.352	7.51363640323	0 
17.352	10.018181871	0 
17.352	12.5227273387	0 
17.352	15.0272728065	0 
17.352	17.5318182742	0 
17.352	20.036363742	0 
17.352	22.5409092097	0 
19.521	1.25227273387	0 
19.521	3.75681820162	0 
19.521	6.26136366936	0 
19.521	8.76590913711	0 
19.521	11.2704546049	0 
19.521	13.7750000726	0 
19.521	16.2795455403	0 
19.521	18.7840910081	0 
19.521	21.2886364758	0 
19.521	23.7931819436	0 
21.69	0.0	0 
21.69	2.50454546774	0 
21.69	5.00909093549	0 
21.69	7.51363640323	0 
21.69	10.018181871	0 
21.69	12.5227273387	0 
21.69	15.0272728065	0 
21.69	17.5318182742	0 
21.69	20.036363742	0 
21.69	22.5409092097	0 
23.859	1.25227273387	0 
23.859	3.75681820162	0 
23.859	6.26136366936	0 
23.859	8.76590913711	0 
23.859	11.2704546049	0 
23.859	13.7750000726	0 
23.859	16.2795455403	0 
23.859	18.7840910081	0 
23.859	21.2886364758	0 
23.859	23.7931819436	0 
1.446	0.0	0 
1.446	2.50454546774	0 
1.446	5.00909093549	0 
1.446	7.51363640323	0 
1.446	10.018181871	0 
1.446	12.5227273387	0 
1.446	15.0272728065	0 
1.446	17.5318182742	0 
1.446	20.036363742	0 
1.446	22.5409092097	0 
3.615	1.25227273387	0 
3.615	3.75681820162	0 
3.615	6.26136366936	0 
3.615	8.76590913711	0 
3.615	11.2704546049	0 
3.615	13.7750000726	0 
3.615	16.2795455403	0 
3.615	18.7840910081	0 
3.615	21.2886364758	0 
3.615	23.7931819436	0 
5.784	0.0	0 
5.784	2.50454546774	0 
5.784	5.00909093549	0 
5.784	7.51363640323	0 
5.784	10.018181871	0 
5.784	12.5227273387	0 
5.784	15.0272728065	0 
5.784	17.5318182742	0 
5.784	20.036363742	0 
5.784	22.5409092097	0 
7.953	1.25227273387	0 
7.953	3.75681820162	0 
7.953	6.26136366936	0 
7.953	8.76590913711	0 
7.953	11.2704546049	0 
7.953	13.7750000726	0 
7.953	16.2795455403	0 
7.953	18.7840910081	0 
7.953	21.2886364758	0 
7.953	23.7931819436	0 
10.122	0.0	0 
10.122	2.50454546774	0 
10.122	5.00909093549	0 
10.122	7.51363640323	0 
10.122	10.018181871	0 
10.122	12.5227273387	0 
10.122	15.0272728065	0 
10.122	17.5318182742	0 
10.122	20.036363742	0 
10.122	22.5409092097	0 
12.291	1.25227273387	0 
12.291	3.75681820162	0 
12.291	6.26136366936	0 
12.291	8.76590913711	0 
12.291	11.2704546049	0 
12.291	13.7750000726	0 
12.291	16.2795455403	0 
12.291	18.7840910081	0 
12.291	21.2886364758	0 
12.291	23.7931819436	0 
14.46	0.0	0 
14.46	2.50454546774	0 
14.46	5.00909093549	0 
14.46	7.51363640323	0 
14.46	10.018181871	0 
14.46	12.5227273387	0 
14.46	15.0272728065	0 
14.46	17.5318182742	0 
14.46	20.036363742	0 
14.46	22.5409092097	0 
16.629	1.25227273387	0 
16.629	3.75681820162	0 
16.629	6.26136366936	0 
16.629	8.76590913711	0 
16.629	11.2704546049	0 
16.629	13.7750000726	0 
16.629	16.2795455403	0 
16.629	18.7840910081	0 
16.629	21.2886364758	0 
16.629	23.7931819436	0 
18.798	0.0	0 
18.798	2.50454546774	0 
18.798	5.00909093549	0 
18.798	7.51363640323	0 
18.798	10.018181871	0 
18.798	12.5227273387	0 
18.798	15.0272728065	0 
18.798	17.5318182742	0 
18.798	20.036363742	0 
18.798	22.5409092097	0 
20.967	1.25227273387	0 
20.967	3.75681820162	0 
20.967	6.26136366936	0 
20.967	8.76590913711	0 
20.967	11.2704546049	0 
20.967	13.7750000726	0 
20.967	16.2795455403	0 
20.967	18.7840910081	0 
20.967	21.2886364758	0 
20.967	23.7931819436	0 
23.136	0.0	0 
23.136	2.50454546774	0 
23.136	5.00909093549	0 
23.136	7.51363640323	0 
23.136	10.018181871	0 
23.136	12.5227273387	0 
23.136	15.0272728065	0 
23.136	17.5318182742	0 
23.136	20.036363742	0 
23.136	22.5409092097	0 
25.305	1.25227273387	0 
25.305	3.75681820162	0 
25.305	6.26136366936	0 
25.305	8.76590913711	0 
25.305	11.2704546049	0 
25.305	13.7750000726	0 
25.305	16.2795455403	0 
25.305	18.7840910081	0 
25.305	21.2886364758	0 
25.305	23.7931819436	0 
