 Al(111)slab
 1.0000000000000000
    34.2210000000000036    0.0000000000000000    0.0000000000000000
    17.1105000000000018   29.6362553429072726    0.0000000000000000
     0.0000000000000000    0.0000000000000000   32.0000000499999970
 Al 
 432
Selective Dynamics
Cartesian
  1.4317144552074623  0.8266007261167065  0.0000000000000000  F F F 
  4.2951433656223870  0.8266007261167065  0.0000000000000000  F F F 
  7.1585722760373125  0.8266007261167065  0.0000000000000000  F F F 
 10.0220011864522363  0.8266007261167065  0.0000000000000000  F F F 
 12.8854300968671591  0.8266007261167065  0.0000000000000000  F F F 
 15.7488590072820838  0.8266007261167065  0.0000000000000000  F F F 
 18.6122879176970102  0.8266007261167065  0.0000000000000000  F F F 
 21.4757168281119348  0.8266007261167065  0.0000000000000000  F F F 
 24.3391457385268630  0.8266007261167065  0.0000000000000000  F F F 
 27.2025746489417877  0.8266007261167065  0.0000000000000000  F F F 
 30.0660035593567123  0.8266007261167065  0.0000000000000000  F F F 
 32.9294324697716334  0.8266007261167065  0.0000000000000000  F F F 
  2.8634289104149246  3.3064029044668262  0.0000000000000000  F F F 
  5.7268578208298493  3.3064029044668262  0.0000000000000000  F F F 
  8.5902867312447739  3.3064029044668262  0.0000000000000000  F F F 
 11.4537156416596986  3.3064029044668262  0.0000000000000000  F F F 
 14.3171445520746214  3.3064029044668262  0.0000000000000000  F F F 
 17.1805734624895479  3.3064029044668262  0.0000000000000000  F F F 
 20.0440023729044725  3.3064029044668262  0.0000000000000000  F F F 
 22.9074312833193972  3.3064029044668262  0.0000000000000000  F F F 
 25.7708601937343253  3.3064029044668262  0.0000000000000000  F F F 
 28.6342891041492500  3.3064029044668262  0.0000000000000000  F F F 
 31.4977180145641746  3.3064029044668262  0.0000000000000000  F F F 
 34.3611469249790957  3.3064029044668262  0.0000000000000000  F F F 
  4.2951433656223870  5.7862050828169469  0.0000000000000000  F F F 
  7.1585722760373116  5.7862050828169469  0.0000000000000000  F F F 
 10.0220011864522363  5.7862050828169469  0.0000000000000000  F F F 
 12.8854300968671609  5.7862050828169469  0.0000000000000000  F F F 
 15.7488590072820855  5.7862050828169469  0.0000000000000000  F F F 
 18.6122879176970102  5.7862050828169469  0.0000000000000000  F F F 
 21.4757168281119348  5.7862050828169469  0.0000000000000000  F F F 
 24.3391457385268595  5.7862050828169469  0.0000000000000000  F F F 
 27.2025746489417877  5.7862050828169469  0.0000000000000000  F F F 
 30.0660035593567123  5.7862050828169469  0.0000000000000000  F F F 
 32.9294324697716334  5.7862050828169469  0.0000000000000000  F F F 
 35.7928613801865581  5.7862050828169469  0.0000000000000000  F F F 
  5.7268578208298493  8.2660072611670667  0.0000000000000000  F F F 
  8.5902867312447739  8.2660072611670667  0.0000000000000000  F F F 
 11.4537156416596986  8.2660072611670667  0.0000000000000000  F F F 
 14.3171445520746232  8.2660072611670667  0.0000000000000000  F F F 
 17.1805734624895479  8.2660072611670667  0.0000000000000000  F F F 
 20.0440023729044725  8.2660072611670667  0.0000000000000000  F F F 
 22.9074312833193972  8.2660072611670667  0.0000000000000000  F F F 
 25.7708601937343218  8.2660072611670667  0.0000000000000000  F F F 
 28.6342891041492500  8.2660072611670667  0.0000000000000000  F F F 
 31.4977180145641746  8.2660072611670667  0.0000000000000000  F F F 
 34.3611469249790957  8.2660072611670667  0.0000000000000000  F F F 
 37.2245758353940204  8.2660072611670667  0.0000000000000000  F F F 
  7.1585722760373107 10.7458094395171848  0.0000000000000000  F F F 
 10.0220011864522363 10.7458094395171848  0.0000000000000000  F F F 
 12.8854300968671609 10.7458094395171848  0.0000000000000000  F F F 
 15.7488590072820855 10.7458094395171848  0.0000000000000000  F F F 
 18.6122879176970102 10.7458094395171848  0.0000000000000000  F F F 
 21.4757168281119348 10.7458094395171848  0.0000000000000000  F F F 
 24.3391457385268595 10.7458094395171848  0.0000000000000000  F F F 
 27.2025746489417841 10.7458094395171848  0.0000000000000000  F F F 
 30.0660035593567088 10.7458094395171848  0.0000000000000000  F F F 
 32.9294324697716334 10.7458094395171848  0.0000000000000000  F F F 
 35.7928613801865581 10.7458094395171848  0.0000000000000000  F F F 
 38.6562902906014827 10.7458094395171848  0.0000000000000000  F F F 
  8.5902867312447739 13.2256116178673047  0.0000000000000000  F F F 
 11.4537156416596986 13.2256116178673047  0.0000000000000000  F F F 
 14.3171445520746232 13.2256116178673047  0.0000000000000000  F F F 
 17.1805734624895479 13.2256116178673047  0.0000000000000000  F F F 
 20.0440023729044725 13.2256116178673047  0.0000000000000000  F F F 
 22.9074312833193972 13.2256116178673047  0.0000000000000000  F F F 
 25.7708601937343218 13.2256116178673047  0.0000000000000000  F F F 
 28.6342891041492464 13.2256116178673047  0.0000000000000000  F F F 
 31.4977180145641711 13.2256116178673047  0.0000000000000000  F F F 
 34.3611469249790957 13.2256116178673047  0.0000000000000000  F F F 
 37.2245758353940204 13.2256116178673047  0.0000000000000000  F F F 
 40.0880047458089450 13.2256116178673047  0.0000000000000000  F F F 
 10.0220011864522363 15.7054137962174245  0.0000000000000000  F F F 
 12.8854300968671609 15.7054137962174245  0.0000000000000000  F F F 
 15.7488590072820855 15.7054137962174245  0.0000000000000000  F F F 
 18.6122879176970102 15.7054137962174245  0.0000000000000000  F F F 
 21.4757168281119348 15.7054137962174245  0.0000000000000000  F F F 
 24.3391457385268595 15.7054137962174245  0.0000000000000000  F F F 
 27.2025746489417841 15.7054137962174245  0.0000000000000000  F F F 
 30.0660035593567088 15.7054137962174245  0.0000000000000000  F F F 
 32.9294324697716334 15.7054137962174245  0.0000000000000000  F F F 
 35.7928613801865581 15.7054137962174245  0.0000000000000000  F F F 
 38.6562902906014827 15.7054137962174245  0.0000000000000000  F F F 
 41.5197192010164073 15.7054137962174245  0.0000000000000000  F F F 
 11.4537156416596986 18.1852159745675444  0.0000000000000000  F F F 
 14.3171445520746232 18.1852159745675444  0.0000000000000000  F F F 
 17.1805734624895479 18.1852159745675444  0.0000000000000000  F F F 
 20.0440023729044725 18.1852159745675444  0.0000000000000000  F F F 
 22.9074312833193972 18.1852159745675444  0.0000000000000000  F F F 
 25.7708601937343218 18.1852159745675444  0.0000000000000000  F F F 
 28.6342891041492464 18.1852159745675444  0.0000000000000000  F F F 
 31.4977180145641711 18.1852159745675444  0.0000000000000000  F F F 
 34.3611469249790957 18.1852159745675444  0.0000000000000000  F F F 
 37.2245758353940204 18.1852159745675444  0.0000000000000000  F F F 
 40.0880047458089450 18.1852159745675444  0.0000000000000000  F F F 
 42.9514336562238697 18.1852159745675444  0.0000000000000000  F F F 
 12.8854300968671627 20.6650181529176677  0.0000000000000000  F F F 
 15.7488590072820855 20.6650181529176677  0.0000000000000000  F F F 
 18.6122879176970102 20.6650181529176677  0.0000000000000000  F F F 
 21.4757168281119348 20.6650181529176677  0.0000000000000000  F F F 
 24.3391457385268595 20.6650181529176677  0.0000000000000000  F F F 
 27.2025746489417841 20.6650181529176677  0.0000000000000000  F F F 
 30.0660035593567088 20.6650181529176677  0.0000000000000000  F F F 
 32.9294324697716334 20.6650181529176677  0.0000000000000000  F F F 
 35.7928613801865652 20.6650181529176677  0.0000000000000000  F F F 
 38.6562902906014898 20.6650181529176677  0.0000000000000000  F F F 
 41.5197192010164144 20.6650181529176677  0.0000000000000000  F F F 
 44.3831481114313391 20.6650181529176677  0.0000000000000000  F F F 
 14.3171445520746250 23.1448203312677876  0.0000000000000000  F F F 
 17.1805734624895479 23.1448203312677876  0.0000000000000000  F F F 
 20.0440023729044725 23.1448203312677876  0.0000000000000000  F F F 
 22.9074312833193972 23.1448203312677876  0.0000000000000000  F F F 
 25.7708601937343218 23.1448203312677876  0.0000000000000000  F F F 
 28.6342891041492464 23.1448203312677876  0.0000000000000000  F F F 
 31.4977180145641711 23.1448203312677876  0.0000000000000000  F F F 
 34.3611469249790957 23.1448203312677876  0.0000000000000000  F F F 
 37.2245758353940204 23.1448203312677876  0.0000000000000000  F F F 
 40.0880047458089450 23.1448203312677876  0.0000000000000000  F F F 
 42.9514336562238697 23.1448203312677876  0.0000000000000000  F F F 
 45.8148625666387943 23.1448203312677876  0.0000000000000000  F F F 
 15.7488590072820873 25.6246225096179074  0.0000000000000000  F F F 
 18.6122879176970102 25.6246225096179074  0.0000000000000000  F F F 
 21.4757168281119348 25.6246225096179074  0.0000000000000000  F F F 
 24.3391457385268595 25.6246225096179074  0.0000000000000000  F F F 
 27.2025746489417841 25.6246225096179074  0.0000000000000000  F F F 
 30.0660035593567088 25.6246225096179074  0.0000000000000000  F F F 
 32.9294324697716334 25.6246225096179074  0.0000000000000000  F F F 
 35.7928613801865581 25.6246225096179074  0.0000000000000000  F F F 
 38.6562902906014898 25.6246225096179074  0.0000000000000000  F F F 
 41.5197192010164144 25.6246225096179074  0.0000000000000000  F F F 
 44.3831481114313391 25.6246225096179074  0.0000000000000000  F F F 
 47.2465770218462637 25.6246225096179074  0.0000000000000000  F F F 
 17.1805734624895479 28.1044246879680273  0.0000000000000000  F F F 
 20.0440023729044725 28.1044246879680273  0.0000000000000000  F F F 
 22.9074312833193972 28.1044246879680273  0.0000000000000000  F F F 
 25.7708601937343218 28.1044246879680273  0.0000000000000000  F F F 
 28.6342891041492464 28.1044246879680273  0.0000000000000000  F F F 
 31.4977180145641711 28.1044246879680273  0.0000000000000000  F F F 
 34.3611469249790957 28.1044246879680273  0.0000000000000000  F F F 
 37.2245758353940204 28.1044246879680273  0.0000000000000000  F F F 
 40.0880047458089450 28.1044246879680273  0.0000000000000000  F F F 
 42.9514336562238697 28.1044246879680273  0.0000000000000000  F F F 
 45.8148625666387943 28.1044246879680273  0.0000000000000000  F F F 
 48.6782914770537189 28.1044246879680273  0.0000000000000000  F F F 
  0.0000000000000000  1.6532014522334131  2.3379799150833893  T T T 
  2.8634289104149246  1.6532014522334131  2.3379799150833893  T T T 
  5.7268578208298493  1.6532014522334131  2.3379799150833893  T T T 
  8.5902867312447739  1.6532014522334131  2.3379799150833893  T T T 
 11.4537156416596986  1.6532014522334131  2.3379799150833893  T T T 
 14.3171445520746250  1.6532014522334131  2.3379799150833893  T T T 
 17.1805734624895479  1.6532014522334131  2.3379799150833893  T T T 
 20.0440023729044725  1.6532014522334131  2.3379799150833893  T T T 
 22.9074312833193972  1.6532014522334131  2.3379799150833893  T T T 
 25.7708601937343182  1.6532014522334131  2.3379799150833893  T T T 
 28.6342891041492429  1.6532014522334131  2.3379799150833893  T T T 
 31.4977180145641675  1.6532014522334131  2.3379799150833893  T T T 
  1.4317144552074621  4.1330036305835325  2.3379799150833893  T T T 
  4.2951433656223870  4.1330036305835325  2.3379799150833893  T T T 
  7.1585722760373116  4.1330036305835325  2.3379799150833893  T T T 
 10.0220011864522363  4.1330036305835325  2.3379799150833893  T T T 
 12.8854300968671609  4.1330036305835325  2.3379799150833893  T T T 
 15.7488590072820855  4.1330036305835325  2.3379799150833893  T T T 
 18.6122879176970102  4.1330036305835325  2.3379799150833893  T T T 
 21.4757168281119348  4.1330036305835325  2.3379799150833893  T T T 
 24.3391457385268595  4.1330036305835325  2.3379799150833893  T T T 
 27.2025746489417806  4.1330036305835325  2.3379799150833893  T T T 
 30.0660035593567052  4.1330036305835325  2.3379799150833893  T T T 
 32.9294324697716334  4.1330036305835325  2.3379799150833893  T T T 
  2.8634289104149246  6.6128058089336523  2.3379799150833893  T T T 
  5.7268578208298493  6.6128058089336523  2.3379799150833893  T T T 
  8.5902867312447739  6.6128058089336523  2.3379799150833893  T T T 
 11.4537156416596986  6.6128058089336523  2.3379799150833893  T T T 
 14.3171445520746232  6.6128058089336523  2.3379799150833893  T T T 
 17.1805734624895479  6.6128058089336523  2.3379799150833893  T T T 
 20.0440023729044725  6.6128058089336523  2.3379799150833893  T T T 
 22.9074312833193972  6.6128058089336523  2.3379799150833893  T T T 
 25.7708601937343218  6.6128058089336523  2.3379799150833893  T T T 
 28.6342891041492429  6.6128058089336523  2.3379799150833893  T T T 
 31.4977180145641675  6.6128058089336523  2.3379799150833893  T T T 
 34.3611469249790957  6.6128058089336523  2.3379799150833893  T T T 
  4.2951433656223870  9.0926079872837722  2.3379799150833893  T T T 
  7.1585722760373116  9.0926079872837722  2.3379799150833893  T T T 
 10.0220011864522363  9.0926079872837722  2.3379799150833893  T T T 
 12.8854300968671609  9.0926079872837722  2.3379799150833893  T T T 
 15.7488590072820855  9.0926079872837722  2.3379799150833893  T T T 
 18.6122879176970102  9.0926079872837722  2.3379799150833893  T T T 
 21.4757168281119348  9.0926079872837722  2.3379799150833893  T T T 
 24.3391457385268595  9.0926079872837722  2.3379799150833893  T T T 
 27.2025746489417841  9.0926079872837722  2.3379799150833893  T T T 
 30.0660035593567052  9.0926079872837722  2.3379799150833893  T T T 
 32.9294324697716334  9.0926079872837722  2.3379799150833893  T T T 
 35.7928613801865581  9.0926079872837722  2.3379799150833893  T T T 
  5.7268578208298502 11.5724101656338938  2.3379799150833893  T T T 
  8.5902867312447739 11.5724101656338938  2.3379799150833893  T T T 
 11.4537156416596986 11.5724101656338938  2.3379799150833893  T T T 
 14.3171445520746232 11.5724101656338938  2.3379799150833893  T T T 
 17.1805734624895479 11.5724101656338938  2.3379799150833893  T T T 
 20.0440023729044725 11.5724101656338938  2.3379799150833893  T T T 
 22.9074312833193972 11.5724101656338938  2.3379799150833893  T T T 
 25.7708601937343218 11.5724101656338938  2.3379799150833893  T T T 
 28.6342891041492464 11.5724101656338938  2.3379799150833893  T T T 
 31.4977180145641711 11.5724101656338938  2.3379799150833893  T T T 
 34.3611469249790957 11.5724101656338938  2.3379799150833893  T T T 
 37.2245758353940204 11.5724101656338938  2.3379799150833893  T T T 
  7.1585722760373125 14.0522123439840136  2.3379799150833893  T T T 
 10.0220011864522363 14.0522123439840136  2.3379799150833893  T T T 
 12.8854300968671609 14.0522123439840136  2.3379799150833893  T T T 
 15.7488590072820855 14.0522123439840136  2.3379799150833893  T T T 
 18.6122879176970102 14.0522123439840136  2.3379799150833893  T T T 
 21.4757168281119348 14.0522123439840136  2.3379799150833893  T T T 
 24.3391457385268595 14.0522123439840136  2.3379799150833893  T T T 
 27.2025746489417841 14.0522123439840136  2.3379799150833893  T T T 
 30.0660035593567088 14.0522123439840136  2.3379799150833893  T T T 
 32.9294324697716334 14.0522123439840136  2.3379799150833893  T T T 
 35.7928613801865581 14.0522123439840136  2.3379799150833893  T T T 
 38.6562902906014827 14.0522123439840136  2.3379799150833893  T T T 
  8.5902867312447739 16.5320145223341335  2.3379799150833893  T T T 
 11.4537156416596986 16.5320145223341335  2.3379799150833893  T T T 
 14.3171445520746232 16.5320145223341335  2.3379799150833893  T T T 
 17.1805734624895479 16.5320145223341335  2.3379799150833893  T T T 
 20.0440023729044725 16.5320145223341335  2.3379799150833893  T T T 
 22.9074312833193972 16.5320145223341335  2.3379799150833893  T T T 
 25.7708601937343218 16.5320145223341335  2.3379799150833893  T T T 
 28.6342891041492464 16.5320145223341335  2.3379799150833893  T T T 
 31.4977180145641711 16.5320145223341335  2.3379799150833893  T T T 
 34.3611469249790957 16.5320145223341335  2.3379799150833893  T T T 
 37.2245758353940204 16.5320145223341335  2.3379799150833893  T T T 
 40.0880047458089450 16.5320145223341335  2.3379799150833893  T T T 
 10.0220011864522363 19.0118167006842533  2.3379799150833893  T T T 
 12.8854300968671609 19.0118167006842533  2.3379799150833893  T T T 
 15.7488590072820855 19.0118167006842533  2.3379799150833893  T T T 
 18.6122879176970102 19.0118167006842533  2.3379799150833893  T T T 
 21.4757168281119348 19.0118167006842533  2.3379799150833893  T T T 
 24.3391457385268595 19.0118167006842533  2.3379799150833893  T T T 
 27.2025746489417841 19.0118167006842533  2.3379799150833893  T T T 
 30.0660035593567088 19.0118167006842533  2.3379799150833893  T T T 
 32.9294324697716334 19.0118167006842533  2.3379799150833893  T T T 
 35.7928613801865581 19.0118167006842533  2.3379799150833893  T T T 
 38.6562902906014827 19.0118167006842533  2.3379799150833893  T T T 
 41.5197192010164073 19.0118167006842533  2.3379799150833893  T T T 
 11.4537156416596968 21.4916188790343696  2.3379799150833893  T T T 
 14.3171445520746232 21.4916188790343696  2.3379799150833893  T T T 
 17.1805734624895479 21.4916188790343696  2.3379799150833893  T T T 
 20.0440023729044725 21.4916188790343696  2.3379799150833893  T T T 
 22.9074312833193972 21.4916188790343696  2.3379799150833893  T T T 
 25.7708601937343218 21.4916188790343696  2.3379799150833893  T T T 
 28.6342891041492464 21.4916188790343696  2.3379799150833893  T T T 
 31.4977180145641711 21.4916188790343696  2.3379799150833893  T T T 
 34.3611469249790957 21.4916188790343696  2.3379799150833893  T T T 
 37.2245758353940204 21.4916188790343696  2.3379799150833893  T T T 
 40.0880047458089450 21.4916188790343696  2.3379799150833893  T T T 
 42.9514336562238697 21.4916188790343696  2.3379799150833893  T T T 
 12.8854300968671591 23.9714210573844895  2.3379799150833893  T T T 
 15.7488590072820855 23.9714210573844895  2.3379799150833893  T T T 
 18.6122879176970102 23.9714210573844895  2.3379799150833893  T T T 
 21.4757168281119348 23.9714210573844895  2.3379799150833893  T T T 
 24.3391457385268595 23.9714210573844895  2.3379799150833893  T T T 
 27.2025746489417841 23.9714210573844895  2.3379799150833893  T T T 
 30.0660035593567088 23.9714210573844895  2.3379799150833893  T T T 
 32.9294324697716334 23.9714210573844895  2.3379799150833893  T T T 
 35.7928613801865581 23.9714210573844895  2.3379799150833893  T T T 
 38.6562902906014756 23.9714210573844895  2.3379799150833893  T T T 
 41.5197192010164002 23.9714210573844895  2.3379799150833893  T T T 
 44.3831481114313249 23.9714210573844895  2.3379799150833893  T T T 
 14.3171445520746214 26.4512232357346093  2.3379799150833893  T T T 
 17.1805734624895479 26.4512232357346093  2.3379799150833893  T T T 
 20.0440023729044725 26.4512232357346093  2.3379799150833893  T T T 
 22.9074312833193972 26.4512232357346093  2.3379799150833893  T T T 
 25.7708601937343218 26.4512232357346093  2.3379799150833893  T T T 
 28.6342891041492464 26.4512232357346093  2.3379799150833893  T T T 
 31.4977180145641711 26.4512232357346093  2.3379799150833893  T T T 
 34.3611469249790957 26.4512232357346093  2.3379799150833893  T T T 
 37.2245758353940204 26.4512232357346093  2.3379799150833893  T T T 
 40.0880047458089450 26.4512232357346093  2.3379799150833893  T T T 
 42.9514336562238697 26.4512232357346093  2.3379799150833893  T T T 
 45.8148625666387943 26.4512232357346093  2.3379799150833893  T T T 
 15.7488590072820838 28.9310254140847292  2.3379799150833893  T T T 
 18.6122879176970102 28.9310254140847292  2.3379799150833893  T T T 
 21.4757168281119348 28.9310254140847292  2.3379799150833893  T T T 
 24.3391457385268595 28.9310254140847292  2.3379799150833893  T T T 
 27.2025746489417841 28.9310254140847292  2.3379799150833893  T T T 
 30.0660035593567088 28.9310254140847292  2.3379799150833893  T T T 
 32.9294324697716334 28.9310254140847292  2.3379799150833893  T T T 
 35.7928613801865581 28.9310254140847292  2.3379799150833893  T T T 
 38.6562902906014827 28.9310254140847292  2.3379799150833893  T T T 
 41.5197192010164002 28.9310254140847292  2.3379799150833893  T T T 
 44.3831481114313249 28.9310254140847292  2.3379799150833893  T T T 
 47.2465770218462495 28.9310254140847292  2.3379799150833893  T T T 
  0.0000000000000000  0.0000000000000000  4.6759598301667786  T T T 
  2.8634289104149246  0.0000000000000000  4.6759598301667786  T T T 
  5.7268578208298493  0.0000000000000000  4.6759598301667786  T T T 
  8.5902867312447739  0.0000000000000000  4.6759598301667786  T T T 
 11.4537156416596986  0.0000000000000000  4.6759598301667786  T T T 
 14.3171445520746232  0.0000000000000000  4.6759598301667786  T T T 
 17.1805734624895479  0.0000000000000000  4.6759598301667786  T T T 
 20.0440023729044725  0.0000000000000000  4.6759598301667786  T T T 
 22.9074312833193972  0.0000000000000000  4.6759598301667786  T T T 
 25.7708601937343218  0.0000000000000000  4.6759598301667786  T T T 
 28.6342891041492464  0.0000000000000000  4.6759598301667786  T T T 
 31.4977180145641711  0.0000000000000000  4.6759598301667786  T T T 
  1.4317144552074623  2.4798021783501198  4.6759598301667786  T T T 
  4.2951433656223870  2.4798021783501198  4.6759598301667786  T T T 
  7.1585722760373116  2.4798021783501198  4.6759598301667786  T T T 
 10.0220011864522363  2.4798021783501198  4.6759598301667786  T T T 
 12.8854300968671609  2.4798021783501198  4.6759598301667786  T T T 
 15.7488590072820855  2.4798021783501198  4.6759598301667786  T T T 
 18.6122879176970102  2.4798021783501198  4.6759598301667786  T T T 
 21.4757168281119348  2.4798021783501198  4.6759598301667786  T T T 
 24.3391457385268595  2.4798021783501198  4.6759598301667786  T T T 
 27.2025746489417841  2.4798021783501198  4.6759598301667786  T T T 
 30.0660035593567088  2.4798021783501198  4.6759598301667786  T T T 
 32.9294324697716334  2.4798021783501198  4.6759598301667786  T T T 
  2.8634289104149246  4.9596043567002397  4.6759598301667786  T T T 
  5.7268578208298493  4.9596043567002397  4.6759598301667786  T T T 
  8.5902867312447739  4.9596043567002397  4.6759598301667786  T T T 
 11.4537156416596986  4.9596043567002397  4.6759598301667786  T T T 
 14.3171445520746232  4.9596043567002397  4.6759598301667786  T T T 
 17.1805734624895479  4.9596043567002397  4.6759598301667786  T T T 
 20.0440023729044725  4.9596043567002397  4.6759598301667786  T T T 
 22.9074312833193972  4.9596043567002397  4.6759598301667786  T T T 
 25.7708601937343218  4.9596043567002397  4.6759598301667786  T T T 
 28.6342891041492464  4.9596043567002397  4.6759598301667786  T T T 
 31.4977180145641711  4.9596043567002397  4.6759598301667786  T T T 
 34.3611469249790957  4.9596043567002397  4.6759598301667786  T T T 
  4.2951433656223870  7.4394065350503595  4.6759598301667786  T T T 
  7.1585722760373116  7.4394065350503595  4.6759598301667786  T T T 
 10.0220011864522363  7.4394065350503595  4.6759598301667786  T T T 
 12.8854300968671609  7.4394065350503595  4.6759598301667786  T T T 
 15.7488590072820855  7.4394065350503595  4.6759598301667786  T T T 
 18.6122879176970102  7.4394065350503595  4.6759598301667786  T T T 
 21.4757168281119348  7.4394065350503595  4.6759598301667786  T T T 
 24.3391457385268595  7.4394065350503595  4.6759598301667786  T T T 
 27.2025746489417841  7.4394065350503595  4.6759598301667786  T T T 
 30.0660035593567088  7.4394065350503595  4.6759598301667786  T T T 
 32.9294324697716334  7.4394065350503595  4.6759598301667786  T T T 
 35.7928613801865581  7.4394065350503595  4.6759598301667786  T T T 
  5.7268578208298493  9.9192087134004794  4.6759598301667786  T T T 
  8.5902867312447739  9.9192087134004794  4.6759598301667786  T T T 
 11.4537156416596986  9.9192087134004794  4.6759598301667786  T T T 
 14.3171445520746232  9.9192087134004794  4.6759598301667786  T T T 
 17.1805734624895479  9.9192087134004794  4.6759598301667786  T T T 
 20.0440023729044725  9.9192087134004794  4.6759598301667786  T T T 
 22.9074312833193972  9.9192087134004794  4.6759598301667786  T T T 
 25.7708601937343218  9.9192087134004794  4.6759598301667786  T T T 
 28.6342891041492464  9.9192087134004794  4.6759598301667786  T T T 
 31.4977180145641711  9.9192087134004794  4.6759598301667786  T T T 
 34.3611469249790957  9.9192087134004794  4.6759598301667786  T T T 
 37.2245758353940204  9.9192087134004794  4.6759598301667786  T T T 
  7.1585722760373116 12.3990108917505992  4.6759598301667786  T T T 
 10.0220011864522363 12.3990108917505992  4.6759598301667786  T T T 
 12.8854300968671609 12.3990108917505992  4.6759598301667786  T T T 
 15.7488590072820855 12.3990108917505992  4.6759598301667786  T T T 
 18.6122879176970102 12.3990108917505992  4.6759598301667786  T T T 
 21.4757168281119348 12.3990108917505992  4.6759598301667786  T T T 
 24.3391457385268595 12.3990108917505992  4.6759598301667786  T T T 
 27.2025746489417841 12.3990108917505992  4.6759598301667786  T T T 
 30.0660035593567088 12.3990108917505992  4.6759598301667786  T T T 
 32.9294324697716334 12.3990108917505992  4.6759598301667786  T T T 
 35.7928613801865581 12.3990108917505992  4.6759598301667786  T T T 
 38.6562902906014827 12.3990108917505992  4.6759598301667786  T T T 
  8.5902867312447739 14.8788130701007191  4.6759598301667786  T T T 
 11.4537156416596986 14.8788130701007191  4.6759598301667786  T T T 
 14.3171445520746232 14.8788130701007191  4.6759598301667786  T T T 
 17.1805734624895479 14.8788130701007191  4.6759598301667786  T T T 
 20.0440023729044725 14.8788130701007191  4.6759598301667786  T T T 
 22.9074312833193972 14.8788130701007191  4.6759598301667786  T T T 
 25.7708601937343218 14.8788130701007191  4.6759598301667786  T T T 
 28.6342891041492464 14.8788130701007191  4.6759598301667786  T T T 
 31.4977180145641711 14.8788130701007191  4.6759598301667786  T T T 
 34.3611469249790957 14.8788130701007191  4.6759598301667786  T T T 
 37.2245758353940204 14.8788130701007191  4.6759598301667786  T T T 
 40.0880047458089450 14.8788130701007191  4.6759598301667786  T T T 
 10.0220011864522363 17.3586152484508389  4.6759598301667786  T T T 
 12.8854300968671609 17.3586152484508389  4.6759598301667786  T T T 
 15.7488590072820855 17.3586152484508389  4.6759598301667786  T T T 
 18.6122879176970102 17.3586152484508389  4.6759598301667786  T T T 
 21.4757168281119348 17.3586152484508389  4.6759598301667786  T T T 
 24.3391457385268595 17.3586152484508389  4.6759598301667786  T T T 
 27.2025746489417841 17.3586152484508389  4.6759598301667786  T T T 
 30.0660035593567088 17.3586152484508389  4.6759598301667786  T T T 
 32.9294324697716334 17.3586152484508389  4.6759598301667786  T T T 
 35.7928613801865581 17.3586152484508389  4.6759598301667786  T T T 
 38.6562902906014827 17.3586152484508389  4.6759598301667786  T T T 
 41.5197192010164073 17.3586152484508389  4.6759598301667786  T T T 
 11.4537156416596986 19.8384174268009588  4.6759598301667786  T T T 
 14.3171445520746232 19.8384174268009588  4.6759598301667786  T T T 
 17.1805734624895479 19.8384174268009588  4.6759598301667786  T T T 
 20.0440023729044725 19.8384174268009588  4.6759598301667786  T T T 
 22.9074312833193972 19.8384174268009588  4.6759598301667786  T T T 
 25.7708601937343218 19.8384174268009588  4.6759598301667786  T T T 
 28.6342891041492464 19.8384174268009588  4.6759598301667786  T T T 
 31.4977180145641711 19.8384174268009588  4.6759598301667786  T T T 
 34.3611469249790957 19.8384174268009588  4.6759598301667786  T T T 
 37.2245758353940204 19.8384174268009588  4.6759598301667786  T T T 
 40.0880047458089450 19.8384174268009588  4.6759598301667786  T T T 
 42.9514336562238697 19.8384174268009588  4.6759598301667786  T T T 
 12.8854300968671609 22.3182196051510786  4.6759598301667786  T T T 
 15.7488590072820855 22.3182196051510786  4.6759598301667786  T T T 
 18.6122879176970102 22.3182196051510786  4.6759598301667786  T T T 
 21.4757168281119348 22.3182196051510786  4.6759598301667786  T T T 
 24.3391457385268595 22.3182196051510786  4.6759598301667786  T T T 
 27.2025746489417841 22.3182196051510786  4.6759598301667786  T T T 
 30.0660035593567088 22.3182196051510786  4.6759598301667786  T T T 
 32.9294324697716334 22.3182196051510786  4.6759598301667786  T T T 
 35.7928613801865581 22.3182196051510786  4.6759598301667786  T T T 
 38.6562902906014827 22.3182196051510786  4.6759598301667786  T T T 
 41.5197192010164073 22.3182196051510786  4.6759598301667786  T T T 
 44.3831481114313320 22.3182196051510786  4.6759598301667786  T T T 
 14.3171445520746232 24.7980217835011985  4.6759598301667786  T T T 
 17.1805734624895479 24.7980217835011985  4.6759598301667786  T T T 
 20.0440023729044725 24.7980217835011985  4.6759598301667786  T T T 
 22.9074312833193972 24.7980217835011985  4.6759598301667786  T T T 
 25.7708601937343218 24.7980217835011985  4.6759598301667786  T T T 
 28.6342891041492464 24.7980217835011985  4.6759598301667786  T T T 
 31.4977180145641711 24.7980217835011985  4.6759598301667786  T T T 
 34.3611469249790957 24.7980217835011985  4.6759598301667786  T T T 
 37.2245758353940204 24.7980217835011985  4.6759598301667786  T T T 
 40.0880047458089450 24.7980217835011985  4.6759598301667786  T T T 
 42.9514336562238697 24.7980217835011985  4.6759598301667786  T T T 
 45.8148625666387943 24.7980217835011985  4.6759598301667786  T T T 
 15.7488590072820855 27.2778239618513183  4.6759598301667786  T T T 
 18.6122879176970102 27.2778239618513183  4.6759598301667786  T T T 
 21.4757168281119348 27.2778239618513183  4.6759598301667786  T T T 
 24.3391457385268595 27.2778239618513183  4.6759598301667786  T T T 
 27.2025746489417841 27.2778239618513183  4.6759598301667786  T T T 
 30.0660035593567088 27.2778239618513183  4.6759598301667786  T T T 
 32.9294324697716334 27.2778239618513183  4.6759598301667786  T T T 
 35.7928613801865581 27.2778239618513183  4.6759598301667786  T T T 
 38.6562902906014827 27.2778239618513183  4.6759598301667786  T T T 
 41.5197192010164073 27.2778239618513183  4.6759598301667786  T T T 