BoronNitride_SiatB                      
   1.0000000000000000     
    17.3520000000000003    0.0000000000000000    0.0000000000000000
     0.0000000000000000   15.0272728064999992    0.0000000000000000
     0.0000000000000000    0.0000000000000000   10.6393173196999999
   B    N    Al   Si
    47    48   128     1
Direct
  0.9931674312608192  0.9971671803447915  0.0327726595296373
  0.9938467880366739  0.1495551440317933  0.9997497062886108
  0.9994260891907810  0.3259267902980826  0.0261697861509326
  0.0074688686625324  0.5015301639085896  0.9602301650026841
  0.0083810401095742  0.6786085224980455  0.9975729989296594
  0.0006586918644031  0.8439886403760956  0.0089533374580870
  0.1113868043462208  0.0732306915447790  0.0115183017683559
  0.1089216197771084  0.2364093628543070  0.0399818311962692
  0.1166366812815625  0.4125015654023466  0.0196435725965489
  0.1223555874202813  0.5860508195362542  0.0232421393954154
  0.1155154628961628  0.7633390742151696  0.0323441141068472
  0.1129245594641428  0.9224549949501117  0.9862549022552252
  0.2379617439815964  0.9987436888367097  0.9948366686521322
  0.2284492034001492  0.1513948842137016  0.0298868277612376
  0.2167560910499489  0.3163186253259191  0.9575772989685825
  0.2429682857908115  0.4886752458171105  0.0218373628332023
  0.2375130008400675  0.6775329611433094  0.0704537135534504
  0.2318479691940451  0.8342221731828581  0.9835409362227208
  0.3649444921966406  0.0771334197740940  0.0071368860637625
  0.3607479777802639  0.2344522229823644  0.9712392343544415
  0.3570814864319234  0.4131818986462124  0.9245711033729180
  0.3441609552855193  0.5969740643547080  0.9368284310828301
  0.3598799843055788  0.7649269129360912  0.0534835139117024
  0.3643194951060653  0.9164123659067922  0.0137992968344753
  0.4984321351541799  0.0015525552822579  0.9664886028840197
  0.4933839627920469  0.1677045683085820  0.0348156783497388
  0.4979510870181576  0.3241850624536960  0.9277474594522961
  0.4671378011296608  0.6696872330990208  0.9333814515731290
  0.4938924143160044  0.8400064773509913  0.0454922858316194
  0.6270328863809045  0.0818275392629520  0.0178854361622704
  0.6269613166842942  0.2486354926009887  0.9999183135355918
  0.6242210412635111  0.4521067867574293  0.9127994142495564
  0.6476730606222807  0.5836241442084150  0.8828022748894651
  0.6378095591476534  0.7621616222207009  0.9690545775503296
  0.6286373792793889  0.9170699328892405  0.0258532896016401
  0.7528591401819988  0.9987375086318837  0.9938293835596148
  0.7589474558252357  0.1637509342139839  0.0055282641203977
  0.7653117399446616  0.3344814303029048  0.9752117282991645
  0.7798405127380820  0.5023197169431556  0.9725777734632759
  0.7697875828731098  0.6669886829828054  0.0266035803144123
  0.7628876950416190  0.8372457144581748  0.9796787983226912
  0.8777883533577068  0.0728908602169864  0.9824624871026968
  0.8837406917262886  0.2408860235960477  0.9737862267246593
  0.8949833095580607  0.4124499031280459  0.9665255399020315
  0.8977629660214764  0.5911757334927182  0.9769128315004355
  0.8885316744220727  0.7600514634404739  0.9860710899399737
  0.8788689499815368  0.9205410636784132  0.9972863695421563
  0.0699287585989701  0.9958951025405419  0.0176203778382587
  0.0720879670336542  0.1530039262311008  0.0193321768015199
  0.0821108142340366  0.3230084247927124  0.9938597859873868
  0.0824524656058495  0.5010971497537221  0.0072807370267816
  0.0856895829904559  0.6748245504119090  0.0300178593461658
  0.0782908549214457  0.8404263863344311  0.9827884249216612
  0.1883057534878838  0.0764824322953818  0.9667728836319537
  0.1907621613666816  0.2377978721350466  0.0403197665106844
  0.1978980154893087  0.4061914181012868  0.0234470616680721
  0.2026189143876710  0.5819355211493868  0.0466302152329354
  0.1929528753602008  0.7661082179565926  0.0655013271261257
  0.1934320278635707  0.9193888893952272  0.9889998413028070
  0.3211136266494253  0.9975313282417516  0.0160026186207390
  0.3149603072923320  0.1543938958922123  0.0048979009122829
  0.3187306455444991  0.3163451085833119  0.9483407522199573
  0.3237674399772140  0.4999886570394973  0.9727142165236791
  0.3150263880874663  0.6826157447646547  0.0171275366938166
  0.3149605573359692  0.8409724184449689  0.0243250754168275
  0.4531408433633088  0.0814180787519837  0.0095547712882777
  0.4430594146616460  0.2445582859079770  0.0159209526837647
  0.4348680109999612  0.3897146621073675  0.8906048868244665
  0.4167432379452869  0.6853143513401574  0.8445227624579980
  0.4386996349827733  0.7752139680830881  0.1114255815252001
  0.4498595835664909  0.9098443872192979  0.9730474638921061
  0.5845280565503886  0.0000434730358159  0.0010856219180586
  0.5822057101941893  0.1666323638798577  0.0312145124348063
  0.5774855662586809  0.3247621639087577  0.9579008738522420
  0.5749049087147109  0.5218753321948681  0.9097555691526477
  0.6014461469363216  0.6764124367295345  0.9788870880054515
  0.5795830667660816  0.8368140286205329  0.9902464317982808
  0.7136447969835525  0.0819260774628762  0.0061676240656979
  0.7187098654887032  0.2507731695638736  0.9919830114538886
  0.7413759977664771  0.4217038157047207  0.9491445206922307
  0.7382444389919901  0.5830777892505852  0.9659990504808899
  0.7234322507657031  0.7578366424364088  0.0113610861082734
  0.7128275140095814  0.9164751148958195  0.9667613810945063
  0.8342173490328866  0.9971426474915863  0.9992241191696877
  0.8423517949261982  0.1570173837251746  0.9630636464693920
  0.8482360701234244  0.3247150004935261  0.9946897635678841
  0.8632394310578512  0.5025267748860159  0.9980668995325718
  0.8511028017279203  0.6771373809874687  0.9635991928425611
  0.8448447734487279  0.8394375095821209  0.9813488465344413
  0.9502330796409639  0.0731110024250805  0.0398187288832354
  0.9636931179749265  0.2341047478674781  0.9613239326733988
  0.9749023244150230  0.4096487540373410  0.9438376603169962
  0.9765623648398021  0.5944458886860724  0.9480859818237581
  0.9655683129756514  0.7610521354212720  0.0205486346298826
  0.9574434986775103  0.9225151136642489  0.9991683870368895
  0.0568535219407202  0.0421734320474410  0.7172863075657460
  0.1227046024177537  0.3608469298937882  0.2782359757315393
  0.5594768836678482  0.2588754363492465  0.7220120047740899
  0.6207695898584802  0.8868170565602782  0.2460952500614129
  0.7220219889543285  0.2576348305331473  0.6962321148846046
  0.9756369677160420  0.2186979234385470  0.7666590917783931
  0.5528268942554267  0.7615900971705417  0.4128600305757029
  0.4255486858793631  0.1908851929065150  0.7269686366381137
  0.9165799064737595  0.0701873145484877  0.6861702929161494
  0.7923618422427857  0.1550480591826999  0.2603553253162480
  0.4668520063617770  0.5822328218880394  0.6781171137760569
  0.1051509043253928  0.7808427943492622  0.4962986947013908
  0.9026539415676130  0.5495793823216619  0.6995047183198322
  0.1931960468040929  0.5744523765064791  0.2467028609787188
  0.4781381282360642  0.6507874490119470  0.2162953313217716
  0.7994845514976016  0.3963508473054566  0.6624123932378247
  0.6105503333735356  0.3966815257193583  0.2622061971225103
  0.6730706495905806  0.9238821632384874  0.7859058232788374
  0.9536487556723202  0.7967102322527011  0.4668590038678048
  0.1602466216696583  0.3924787636183242  0.5314500197149926
  0.4196843527405844  0.7883692939855818  0.7104877481342221
  0.1628698692191266  0.9216737575359718  0.6706074541516671
  0.6747119339175708  0.4033114826984059  0.7608386611045395
  0.0658570421156410  0.6667683194386091  0.2884827111226110
  0.8043192958344701  0.8317328008364412  0.7167288327437974
  0.5020815306213662  0.6022194097398719  0.4652955131635994
  0.7346234864603111  0.5492515701218345  0.6935848760124038
  0.3649295365168613  0.1930094503750126  0.1821243164289154
  0.3060547169366183  0.3359221643474581  0.5232173142140957
  0.4344731864172273  0.0554279718567723  0.5588616229189540
  0.5183771060890697  0.4378339340003388  0.7436994638561526
  0.5012964721364898  0.2608953519474385  0.2388855502595651
  0.9409326588815750  0.9487578548364435  0.3220455167762860
  0.7168100201770463  0.7994558059268724  0.3632361826096934
  0.2572303181907627  0.5122532323986736  0.7891895717934720
  0.3948568106396774  0.7372923176057973  0.4167946185684220
  0.8565593925037509  0.0540224314948160  0.4506414947925227
  0.4643050576812455  0.2511320826999459  0.5084586770842069
  0.3756884128376319  0.3285565153173311  0.7576020958021149
  0.5406184634796336  0.7288620156272467  0.6247030422675531
  0.8275660462074553  0.3335027219553582  0.2195665327519798
  0.4835239686608013  0.1211073781184301  0.3404188470028633
  0.4481568656324759  0.9503282608437403  0.7752475351138465
  0.9413351792319932  0.7235147553187234  0.6752126104116944
  0.8128595698138456  0.6746562215301040  0.7921475507893151
  0.9038905698378895  0.2301959244681766  0.3794704588654746
  0.8071213551311943  0.1470714761447800  0.7808493941651626
  0.5455222057501814  0.9791343644207480  0.3991480783187109
  0.6617097984512140  0.8352910649557161  0.5800055097108491
  0.1418956377282147  0.5039144537961603  0.7580373621277999
  0.7856557649937941  0.9957671017406948  0.6777100982988628
  0.6405874146919702  0.7120935412252413  0.1691044548483826
  0.4792099456447124  0.8400309856914862  0.2574378525365065
  0.2982578422271528  0.6738748388627837  0.7991307108413653
  0.5279860403392879  0.0913844123271147  0.7916111896356234
  0.3187417157456022  0.8611380989303388  0.3299960921931788
  0.7370999382834245  0.1430922118160205  0.4958649313759133
  0.3564374242506969  0.5557980731564497  0.3018138081322690
  0.6991540338539810  0.9882566037992812  0.4912264947498171
  0.5531310788697421  0.8331865616283568  0.8118227655697025
  0.6626837323792512  0.0518650452558369  0.2820771642066228
  0.1936544671325608  0.0821832032099740  0.7844465766299916
  0.9542586692380114  0.0993672512388062  0.2225897612810972
  0.9840891681696561  0.6166315334698046  0.4919821405618790
  0.0458635081026524  0.8392004665801840  0.2850218359006462
  0.6975253322985007  0.4407316830205212  0.4772154567944083
  0.2341771244944515  0.2650661244445547  0.2064195141272137
  0.5973266832033080  0.5557277154300470  0.6634054501491558
  0.6701835834683050  0.6511828313350881  0.5110193307529760
  0.2801711147669355  0.1608253959197512  0.6401612474014707
  0.8310652704436550  0.7054327532446552  0.4629752675001463
  0.0598849348145790  0.6341311265979209  0.7118041046981270
  0.3620308857460154  0.6400684424815486  0.5819228991680760
  0.0396225470197767  0.9423181267771816  0.5085422772049019
  0.3420029339160147  0.1874784605160730  0.4314131799930125
  0.2500841340730084  0.8142200827764359  0.7810563217821194
  0.7524837553575512  0.4747743537540028  0.2500731200707640
  0.0640472900550009  0.1989713862337376  0.2686829789916111
  0.1136588306116511  0.2037458312626536  0.6770847355598775
  0.6639558059737485  0.1027392374873656  0.7076679655429573
  0.0337064126165793  0.4998856526806205  0.3244145666763956
  0.7770262031758732  0.6523028865784032  0.2467735739084178
  0.9363002678670440  0.3825545790736543  0.7325002947253599
  0.2241783179221772  0.3200340449552979  0.7320771589719156
  0.7654361198053234  0.3033598013597021  0.4305024323876002
  0.1731918794001199  0.9034862940411104  0.4090773991014340
  0.3705140443066560  0.3429480824799287  0.2973292601728673
  0.6607563375850963  0.7112865375355729  0.7534859834334179
  0.6008162243901950  0.3820539399966648  0.6023267990293294
  0.6523649678525112  0.2210422506006445  0.2860918524679159
  0.5680795307307726  0.9690829637827298  0.6368771868079950
  0.9799257057986294  0.3458467428400435  0.2394161328412974
  0.8667136400074200  0.2457078879650128  0.6118964526467310
  0.9061788161016776  0.3890701943389870  0.4661788501593984
  0.0375011876367247  0.2885969908472134  0.4939952084182639
  0.1860746186769588  0.2284264511934595  0.4669416864376060
  0.3051226107145384  0.8171802331529450  0.5696668756890675
  0.3116355068888911  0.9725126411407261  0.7250497302075288
  0.5737843158221418  0.1284911082253810  0.5238315382371495
  0.2442421487843185  0.6795597922300008  0.4466317654908580
  0.8354810424015143  0.8872776731070170  0.4901422977299023
  0.1943635719723026  0.6675524047726427  0.6482442211925904
  0.8561651274182523  0.8069222546511993  0.2456033167360153
  0.8147053055699025  0.5278242800873810  0.4897036024788495
  0.0766479943470705  0.7975258637119067  0.7259692677395859
  0.6278888557299600  0.5613150691202612  0.3036835775731996
  0.3480180075233587  0.4620203715619908  0.6672874555668378
  0.3245460535096323  0.6960470134295020  0.2054023671408420
  0.9528579996854986  0.9057928169169336  0.7078046202247118
  0.3706680427270162  0.0366036396709502  0.3252281695189089
  0.1249715200982075  0.5470753123834029  0.4998565237755685
  0.2047033758185720  0.9379528459586570  0.1937099524671038
  0.7915393354874720  0.9558087190971088  0.2720443207790561
  0.0854329150733768  0.0135803175574242  0.2897924080109365
  0.2377182328768597  0.1032029534573613  0.2914413860720276
  0.8929437579896494  0.4886195248127390  0.2795831046109055
  0.0242950344991608  0.4543205329395854  0.5964763511132901
  0.0843051804240724  0.3488396714060313  0.7914847863809844
  0.2496597707252377  0.4218540145497848  0.3277471845928295
  0.9243023690166284  0.6489941248817604  0.2808165174520506
  0.2909189774598152  0.9776163585080411  0.4989128321676181
  0.1598343134177243  0.0632071807189299  0.5097738255679809
  0.1892632521708579  0.7526399973076848  0.2565965578372942
  0.6388782790482941  0.2599180751766287  0.5035233582679987
  0.9955685825834520  0.1166899129242508  0.4820271538709458
  0.4444146558552748  0.8879321003575980  0.5012350018913604
  0.2767075701918469  0.5237929806471965  0.4914129783323598
  0.4581964842378174  0.3786119361448121  0.5902000389367401
  0.5496604849317238  0.5617454209609004  0.0887910158006714

 -0.30948166E-02  0.74114602E-03  0.86727306E-02
  0.26586220E-02  0.88547376E-02 -0.64886133E-03
  0.35377962E-02 -0.36410231E-02 -0.81007059E-02
  0.10584503E-01  0.29206899E-02 -0.36794224E-02
 -0.13719939E-02 -0.20363256E-02 -0.72813075E-03
 -0.16585053E-02 -0.10822001E-01 -0.13791703E-02
  0.14548375E-02  0.51928517E-02  0.16200840E-02
  0.18523201E-01  0.28039760E-02  0.68917623E-02
  0.12285421E-01 -0.63811321E-02  0.74251104E-02
  0.11307167E-01 -0.93594026E-03  0.49636231E-02
  0.12914449E-01 -0.13338501E-02  0.42774099E-02
 -0.27444744E-02 -0.69250594E-02 -0.45939594E-02
  0.91767658E-02  0.27372529E-02  0.31085934E-03
  0.14487296E-01  0.68976625E-02  0.24448991E-02
  0.36115794E-01  0.48234490E-02  0.85174600E-02
  0.15368126E-02  0.45263888E-02 -0.91141843E-02
  0.15731222E-01 -0.10488175E-01 -0.58269416E-02
  0.12274139E-01 -0.12091148E-01  0.67311603E-02
  0.13140515E-02  0.16390081E-01  0.39338842E-02
  0.11175911E-01  0.27391869E-01 -0.48707071E-02
  0.54860358E-02 -0.15964899E-01  0.12793572E-01
 -0.55467551E-02 -0.80300076E-02  0.17514926E-01
  0.74717367E-02 -0.15846348E-01  0.11422677E-01
 -0.27298043E-02 -0.89668445E-02 -0.76099242E-02
 -0.30795389E-02  0.28104359E-02  0.24760341E-02
  0.16343428E-02  0.19257985E-02 -0.10257723E-01
  0.22228091E-03 -0.52356091E-02  0.12708373E-01
  0.38541272E-03 -0.12958161E-01 -0.22719350E-03
  0.45797587E-02 -0.55363927E-02 -0.48396263E-02
 -0.94725315E-02  0.10411088E-01 -0.15728370E-02
 -0.26238019E-02  0.72943888E-02 -0.91937202E-02
 -0.17910433E-01 -0.13669650E-02  0.25401818E-01
 -0.17212706E-02  0.18693153E-01  0.56365886E-02
 -0.37273705E-02 -0.90479939E-02  0.67660956E-02
 -0.86323754E-02 -0.27892930E-02  0.36580038E-03
 -0.10978542E-01  0.60002508E-02 -0.58355676E-02
 -0.25413602E-02  0.13358387E-01 -0.10179680E-02
 -0.86884632E-02 -0.11153882E-02  0.39287425E-02
 -0.13080882E-01 -0.14931318E-03  0.40570591E-04
 -0.15335346E-01 -0.94220822E-02 -0.84862621E-02
  0.16645425E-02 -0.11412707E-01  0.39706880E-02
 -0.48598044E-03  0.76926118E-02 -0.11084847E-02
 -0.14521334E-01  0.90807233E-02 -0.18562829E-02
 -0.16306449E-01  0.13353937E-01  0.91940854E-02
 -0.12257416E-01 -0.10596328E-01 -0.91333078E-02
 -0.11052647E-01 -0.11485868E-01 -0.40529498E-02
 -0.24512128E-03 -0.71379963E-02 -0.28387218E-02
  0.93518741E-03  0.14987076E-02  0.33775119E-02
  0.21941830E-02  0.11263243E-01  0.32169567E-02
  0.59221217E-02 -0.61739289E-02  0.63861338E-02
  0.91923654E-02 -0.41816017E-02  0.54570535E-02
  0.40368764E-02  0.33596957E-02 -0.93987335E-03
  0.23423686E-03 -0.11603617E-01 -0.51410606E-02
  0.97951994E-02  0.92424977E-02 -0.68128792E-04
  0.20427036E-01  0.56733980E-02 -0.71384233E-02
  0.19775387E-01 -0.22751079E-02 -0.14361614E-02
  0.15014143E-01 -0.30074144E-02  0.50522072E-02
  0.20027135E-01 -0.11946391E-01 -0.13656296E-02
  0.43480503E-02 -0.27795734E-02  0.14035187E-02
  0.11558555E-01  0.52774706E-02 -0.46656403E-02
  0.85511292E-02  0.20595077E-01  0.84818681E-03
 -0.14043273E-01  0.21417075E-01 -0.14004418E-01
 -0.13232933E-01  0.18893820E-01  0.13538520E-03
  0.69831803E-02 -0.15855994E-01  0.21196704E-02
  0.71048149E-02 -0.13255722E-01  0.50328524E-03
 -0.60691671E-02  0.20847985E-02  0.47904672E-02
  0.54670384E-02  0.27176874E-02 -0.72566249E-02
  0.70719213E-02 -0.10844107E-01  0.22561111E-01
  0.59381857E-02  0.41763709E-02 -0.51471377E-02
 -0.47925053E-02 -0.71642207E-02 -0.61216655E-02
 -0.17381254E-02  0.86888243E-03  0.92706837E-02
 -0.44303083E-02  0.16457734E-02  0.77509891E-05
 -0.12230273E-03  0.18448371E-01 -0.20656210E-02
 -0.98575319E-03 -0.13806142E-02 -0.91264714E-02
  0.22363876E-01 -0.96771355E-03  0.12329582E-01
  0.27914811E-02 -0.82729351E-02 -0.72125082E-02
  0.28094858E-03 -0.14535172E-01  0.44004983E-02
 -0.43846706E-02  0.11341182E-01  0.26434782E-02
 -0.12710941E-01  0.11471701E-01 -0.16048198E-02
 -0.66212206E-02 -0.35110343E-02  0.16861249E-02
 -0.97754091E-02  0.40072045E-02 -0.60128805E-02
 -0.14503629E-02 -0.14275615E-01 -0.51510288E-02
 -0.12970626E-02 -0.85174144E-02 -0.24340725E-02
 -0.25920878E-02  0.86937816E-03 -0.38270748E-02
 -0.56826325E-02  0.11744492E-01 -0.61779834E-02
 -0.10996507E-01  0.12589265E-01 -0.68487783E-02
 -0.15524144E-01  0.22391017E-03 -0.26662178E-02
 -0.15708196E-01 -0.16725169E-01  0.10736363E-01
 -0.89577550E-03 -0.96305199E-02 -0.35535312E-02
  0.51456405E-02  0.94525770E-02 -0.16533191E-02
 -0.14533781E-01  0.18727163E-02 -0.42683483E-02
 -0.14121992E-01  0.16928098E-03 -0.94372015E-02
 -0.11278603E-01  0.12037780E-02 -0.77959411E-02
 -0.14809474E-01 -0.32670617E-02 -0.65675794E-03
  0.16273292E-02 -0.75341391E-02  0.95120790E-03
 -0.13029633E-02  0.24629624E-02 -0.67438386E-03
  0.53575191E-03  0.14263978E-02 -0.64027161E-03
 -0.68935790E-03 -0.34458954E-02  0.42033136E-02
  0.17099001E-02  0.35529437E-02 -0.34496637E-02
 -0.12323776E-02 -0.59839260E-03 -0.24448691E-02
 -0.44033739E-03  0.19673476E-02  0.29413132E-02
  0.16488918E-02  0.35874897E-02 -0.29947275E-02
 -0.48965068E-03 -0.82024784E-02  0.17509805E-02
  0.33653540E-03  0.95886439E-03 -0.54099600E-03
  0.31703549E-02 -0.58132593E-03 -0.10800364E-02
 -0.20932048E-02 -0.24100820E-02  0.19137148E-02
 -0.15678331E-02 -0.45220678E-02  0.86073930E-03
 -0.19028318E-03  0.18884805E-02 -0.20620648E-02
 -0.17464964E-02 -0.31523276E-02  0.39565209E-04
 -0.55962572E-02  0.97531152E-02  0.42961844E-02
  0.29681134E-02  0.18851515E-02 -0.36283597E-03
 -0.69563127E-02  0.11220760E-02 -0.29566492E-02
  0.31837421E-02  0.17792672E-02  0.19139431E-03
  0.22054858E-02  0.11014729E-02 -0.13475587E-02
  0.84239469E-03 -0.82132108E-04  0.12630202E-02
  0.73296973E-03 -0.18331520E-02  0.24917319E-03
  0.40135075E-04  0.39965371E-04  0.66064380E-03
  0.26692957E-01  0.13126292E-03  0.23464945E-01
 -0.13979976E-03  0.90764177E-03  0.17148320E-02
  0.11759668E-02 -0.51375021E-03 -0.47215544E-03
  0.26196056E-02 -0.12103397E-03 -0.81796746E-02
  0.27263996E-02  0.24371124E-02  0.27033194E-02
  0.24171892E-02 -0.18244604E-02 -0.13483054E-02
 -0.32756473E-03  0.12181906E-02 -0.24755790E-02
 -0.48771867E-02  0.21505947E-02  0.34225339E-02
  0.59447885E-02  0.16197017E-01  0.30505684E-01
  0.80947688E-03  0.27069055E-02 -0.44661139E-02
 -0.16343676E-02  0.13221277E-02  0.33211370E-03
  0.30605931E-03 -0.33957110E-02  0.61389333E-03
 -0.39362723E-01  0.22470319E-01  0.39644047E-01
  0.21231810E-02 -0.14694645E-02 -0.60535454E-02
  0.63200966E-04  0.87573699E-03  0.25782358E-03
  0.18331040E-02 -0.26189265E-01 -0.12676625E-01
 -0.19267456E-02 -0.11767790E-01 -0.14935347E-02
  0.51570378E-02  0.22149930E-02  0.34143744E-02
  0.34724904E-02 -0.13688229E-02 -0.20320198E-02
  0.24324365E-02  0.19013913E-02  0.12523344E-02
 -0.14838947E-02  0.61460001E-04  0.14410198E-02
 -0.56342570E-02  0.16250233E-02 -0.15698644E-02
 -0.10393706E-02 -0.14401546E-02 -0.30736251E-03
  0.13794863E-02 -0.25841656E-02 -0.20743316E-02
 -0.15519188E-02 -0.41594727E-03 -0.19347416E-02
  0.39616750E-02  0.36642995E-03 -0.87832123E-03
  0.38766916E-02  0.16702214E-02  0.25556370E-04
 -0.13497321E-01  0.19084419E-03  0.43312886E-03
  0.22944361E-02  0.55975136E-04  0.11549839E-02
 -0.25989504E-02 -0.15719195E-02 -0.18727905E-02
 -0.26403062E-02  0.15392896E-02 -0.12849459E-02
  0.18075146E-02 -0.39879944E-03 -0.28686928E-02
  0.14061104E-02  0.63268925E-03  0.36958079E-02
 -0.13203153E-02  0.31398441E-02 -0.43277839E-02
  0.13310792E-02  0.32046363E-04 -0.14056212E-02
  0.35138170E-02 -0.23558723E-02 -0.28491761E-02
 -0.25850837E-02 -0.15489336E-02 -0.90475418E-03
 -0.71516270E-03 -0.11614187E-02  0.24519075E-02
  0.10871806E-02  0.21606847E-02  0.99230466E-04
  0.89749008E-03 -0.11195323E-02 -0.30178195E-02
 -0.11064449E-02 -0.18568143E-03  0.44196015E-02
  0.90780488E-03 -0.85209011E-03  0.72135593E-03
 -0.11214191E-02 -0.27158397E-02 -0.73385986E-03
  0.16000377E-02  0.11502419E-02 -0.46672631E-02
 -0.37930648E-03 -0.72999837E-03  0.11990867E-02
  0.10817111E-01  0.21781991E-02 -0.61286342E-03
 -0.50955461E-03  0.83342011E-03 -0.87919020E-03
  0.22176003E-02  0.84071631E-03  0.14341841E-02
 -0.23390923E-02 -0.37362970E-02 -0.19669135E-02
 -0.57637022E-04 -0.68361826E-03 -0.28030557E-02
 -0.11130421E-01  0.46044027E-02 -0.58155445E-02
 -0.13079801E-02  0.23117674E-02  0.20944227E-02
 -0.23564232E-02  0.10570164E-02 -0.24584646E-02
 -0.33978476E-02  0.58615139E-02  0.21071569E-02
 -0.15079744E-02 -0.10702748E-02 -0.93838111E-03
  0.33287285E-02  0.14954864E-02  0.10317755E-02
 -0.29257494E-02 -0.15626687E-02  0.18109051E-02
 -0.62471976E-03 -0.55051699E-03 -0.10595700E-02
  0.29837987E-02 -0.15198379E-02 -0.29115462E-02
 -0.19635530E-02 -0.19866017E-02 -0.57502386E-02
 -0.17750034E-02 -0.17825683E-03  0.26715031E-02
  0.18058805E-04 -0.80393235E-03  0.30970183E-02
  0.30566878E-02 -0.49355116E-02 -0.23552263E-02
  0.20810083E-02  0.11906843E-02  0.53155791E-03
  0.62837822E-02 -0.10836521E-02 -0.20161559E-02
  0.15391365E-02 -0.13595930E-02  0.40703484E-02
 -0.60488914E-02 -0.62041952E-02 -0.14830775E-01
  0.21268669E-02  0.33160283E-02 -0.59358251E-02
 -0.18959150E-02 -0.27482150E-04 -0.13926172E-02
  0.13339973E-02 -0.22141333E-03 -0.21496051E-02
  0.43128332E-03  0.41091750E-03 -0.78131248E-03
 -0.80905371E-03 -0.30290783E-02  0.25459893E-02
  0.79765049E-03 -0.31592509E-04 -0.25883850E-02
 -0.18515360E-02  0.40058808E-03 -0.11800854E-02
 -0.77449749E-03 -0.29649980E-02 -0.11514730E-02
 -0.13716701E-02  0.12684729E-03 -0.82363654E-03
 -0.48018314E-02 -0.40823589E-02 -0.51451037E-03
 -0.15247771E-02  0.28617554E-02 -0.92472732E-02
 -0.51286380E-02 -0.15042374E-02  0.20179041E-02
 -0.30624528E-02  0.28470162E-03  0.21380458E-02
  0.16635498E-03 -0.10932996E-02 -0.15925396E-02
  0.12146141E-02  0.10999775E-02  0.59904965E-04
 -0.15053197E-02 -0.41863476E-03  0.30028291E-02
  0.37910586E-03  0.17842423E-02 -0.50458597E-03
  0.12121043E-01 -0.59415555E-03 -0.63588432E-02
 -0.23802178E-02 -0.10246137E-03  0.16490415E-03
 -0.10987466E-03 -0.16518775E-02  0.28005627E-03
 -0.28688800E-02 -0.40474549E-02  0.21884531E-02
  0.25025928E-02  0.26465086E-02  0.33001548E-03
  0.56567456E-03 -0.11511014E-02  0.29725850E-03
 -0.30851980E-02  0.10407208E-02 -0.12819309E-02
 -0.89889679E-03  0.35991228E-02  0.16645350E-02
 -0.16644544E-02 -0.22206968E-02  0.20872148E-02
  0.20755118E-03  0.11175612E-02 -0.30089130E-03
  0.12972902E-03  0.88996381E-03 -0.21852329E-02
 -0.38959438E-03 -0.62613836E-03  0.37234884E-02
  0.27554915E-02 -0.12764367E-02 -0.38061390E-02
 -0.14848058E-02  0.29034439E-02 -0.33779485E-02
 -0.14574410E-02  0.89670541E-03  0.12056515E-02
 -0.17550609E-02  0.14629313E-04  0.30635347E-02
 -0.26883684E-02  0.33853262E-02  0.41203458E-02
 -0.29600978E-03 -0.67917225E-02 -0.66986311E-02
  0.10845993E-02 -0.58882250E-03  0.36523115E-03
 -0.70814989E-03 -0.97318897E-03 -0.14161302E-02
 -0.15728492E-02  0.61196982E-03 -0.89252404E-03
 -0.38010651E-02 -0.18938797E-02  0.16137188E-02
  0.16674739E-01  0.26335611E-02 -0.94685778E-02

           1
  0.54731196234688684     
  0.25432390E+00  0.85035415E-02 -0.80241981E-03  0.00000000E+00
  0.99306982E+00  0.99719417E+00  0.33218806E-01
  0.99393065E+00  0.14987764E+00  0.99971633E+00
  0.99953768E+00  0.32579418E+00  0.25753066E-01
  0.78027221E-02  0.50163654E+00  0.96004089E+00
  0.83377651E-02  0.67853436E+00  0.99753554E+00
  0.60637975E-03  0.84359449E+00  0.88823896E-02
  0.11143269E+00  0.73419822E-01  0.11601643E-01
  0.10950587E+00  0.23651149E+00  0.40336360E-01
  0.11702418E+00  0.41226916E+00  0.20025538E-01
  0.12271223E+00  0.58601673E+00  0.23497480E-01
  0.11592281E+00  0.76329049E+00  0.32564154E-01
  0.11283799E+00  0.92220278E+00  0.98601858E+00
  0.23825119E+00  0.99884338E+00  0.99485266E+00
  0.22890616E+00  0.15164611E+00  0.30012599E-01
  0.21789525E+00  0.31649430E+00  0.95801546E+00
  0.24301676E+00  0.48884010E+00  0.21368507E-01
  0.23800919E+00  0.67715097E+00  0.70153962E-01
  0.23223512E+00  0.83378180E+00  0.98388720E+00
  0.36498594E+00  0.77730367E-01  0.73392545E-02
  0.36110049E+00  0.23544987E+00  0.97098867E+00
  0.35725453E+00  0.41260044E+00  0.92522924E+00
  0.34398600E+00  0.59668160E+00  0.93772944E+00
  0.36011566E+00  0.76434977E+00  0.54071124E-01
  0.36423339E+00  0.91608578E+00  0.13407824E-01
  0.49833500E+00  0.16549149E-02  0.96661598E+00
  0.49343551E+00  0.16777471E+00  0.34287996E-01
  0.49795810E+00  0.32399438E+00  0.92840121E+00
  0.46714996E+00  0.66921528E+00  0.93336976E+00
  0.49403687E+00  0.83980484E+00  0.45243324E-01
  0.62673411E+00  0.82206724E-01  0.17804526E-01
  0.62687856E+00  0.24890116E+00  0.99944537E+00
  0.62365612E+00  0.45205700E+00  0.91410614E+00
  0.64761877E+00  0.58430497E+00  0.88309223E+00
  0.63769199E+00  0.76183208E+00  0.96940264E+00
  0.62836510E+00  0.91696834E+00  0.25872107E-01
  0.75251286E+00  0.99895605E+00  0.99352919E+00
  0.75886730E+00  0.16423746E+00  0.54758974E-02
  0.76503769E+00  0.33444081E+00  0.97541383E+00
  0.77942792E+00  0.50231428E+00  0.97257986E+00
  0.76930388E+00  0.66664552E+00  0.26167027E-01
  0.76294020E+00  0.83683005E+00  0.97988306E+00
  0.87777302E+00  0.73171035E-01  0.98240546E+00
  0.88328266E+00  0.24121675E+00  0.97369074E+00
  0.89446898E+00  0.41293627E+00  0.96699851E+00
  0.89737635E+00  0.59078980E+00  0.97644299E+00
  0.88818305E+00  0.75963313E+00  0.98586260E+00
  0.87886122E+00  0.92028109E+00  0.99714034E+00
  0.69958256E-01  0.99594969E+00  0.17794125E-01
  0.72157175E-01  0.15341415E+00  0.19497665E-01
  0.82297608E-01  0.32278356E+00  0.99418830E+00
  0.82742409E-01  0.50094485E+00  0.75614609E-02
  0.85816913E-01  0.67494691E+00  0.29969510E-01
  0.78298243E-01  0.84000377E+00  0.98252396E+00
  0.18861471E+00  0.76819056E-01  0.96676938E+00
  0.19140647E+00  0.23800450E+00  0.39952549E-01
  0.19852177E+00  0.40610856E+00  0.23373182E-01
  0.20309249E+00  0.58182599E+00  0.46890113E-01
  0.19358457E+00  0.76567312E+00  0.65431076E-01
  0.19356917E+00  0.91928765E+00  0.98907204E+00
  0.32147820E+00  0.99772354E+00  0.15762607E-01
  0.31523002E+00  0.15514399E+00  0.49415337E-02
  0.31828770E+00  0.31712515E+00  0.94762033E+00
  0.32335005E+00  0.50067679E+00  0.97272118E+00
  0.31524665E+00  0.68203825E+00  0.17236578E-01
  0.31518466E+00  0.84048963E+00  0.24350966E-01
  0.45294941E+00  0.81494010E-01  0.98012044E-02
  0.44323185E+00  0.24465727E+00  0.15547655E-01
  0.43509107E+00  0.38931971E+00  0.89176548E+00
  0.41693054E+00  0.68546646E+00  0.84425798E+00
  0.43854847E+00  0.77495304E+00  0.11111067E+00
  0.44980476E+00  0.90987603E+00  0.97352437E+00
  0.58438832E+00  0.10341415E-03  0.10860206E-02
  0.58220185E+00  0.16730428E+00  0.31108252E-01
  0.57745447E+00  0.32471188E+00  0.95743139E+00
  0.57561030E+00  0.52184009E+00  0.91038983E+00
  0.60153420E+00  0.67611113E+00  0.97851606E+00
  0.57959193E+00  0.83628464E+00  0.99047280E+00
  0.71350650E+00  0.82339137E-01  0.63036109E-02
  0.71830894E+00  0.25119098E+00  0.99190046E+00
  0.74116715E+00  0.42157594E+00  0.94923126E+00
  0.73793611E+00  0.58322374E+00  0.96568973E+00
  0.72338650E+00  0.75731671E+00  0.11096105E-01
  0.71278660E+00  0.91616490E+00  0.96663617E+00
  0.83413559E+00  0.99717431E+00  0.99902725E+00
  0.84217255E+00  0.15744513E+00  0.96274584E+00
  0.84788922E+00  0.32517352E+00  0.99433745E+00
  0.86274977E+00  0.50253493E+00  0.99792974E+00
  0.85060734E+00  0.67652823E+00  0.96415150E+00
  0.84481652E+00  0.83908675E+00  0.98116604E+00
  0.95039538E+00  0.73455277E-01  0.39733678E-01
  0.96323470E+00  0.23417295E+00  0.96110436E+00
  0.97445689E+00  0.40965492E+00  0.94335219E+00
  0.97620662E+00  0.59448973E+00  0.94768494E+00
  0.96510120E+00  0.76093314E+00  0.20514849E-01
  0.95749483E+00  0.92224071E+00  0.99921732E+00
  0.56812424E-01  0.42263136E-01  0.71725162E+00
  0.12272150E+00  0.36089888E+00  0.27820304E+00
  0.55945514E+00  0.25874993E+00  0.72222823E+00
  0.62082352E+00  0.88694646E+00  0.24591779E+00
  0.72198312E+00  0.25761304E+00  0.69610634E+00