Sheet_ONLY   
   1.00000000000000     
    17.3520000000000003    0.0000000000000000    0.0000000000000000
     0.0000000000000000   15.0272728064999992    0.0000000000000000
     0.0000000000000000    0.0000000000000000   20.0000000000000000
   B    N   
    48    48  
Direct
-0.0048529096853504   0.0030419964656040   0.0200000000000
-0.0039017672247155   0.1694012190192257   0.0200000000000
-0.0041023560570815   0.3365554202265412   0.0200000000000
-0.0042700299299418   0.5029708642698566   0.0200000000000
-0.0043771064056019   0.6696085603180524   0.0200000000000
-0.0050741191122555   0.8365070906649605   0.0200000000000
0.1198423998282993   0.0873974303630408   0.0200000000000
0.1211106418053376   0.2536507484729321   0.0200000000000
0.1219424875059605   0.4210348265200848   0.0200000000000
0.1196149041066497   0.5863078936980844   0.0200000000000
0.1197574363094119   0.7523860927885704   0.0200000000000
0.1199535019391925   0.9201187838326835   0.0200000000000
0.2481865808734788   0.0032895874204174   0.0200000000000
0.2458384243379989   0.1700571220955475   0.0200000000000
0.2471370384316818   0.3377264150350615   0.0200000000000
0.2452603074669633   0.5022578185746317   0.0200000000000
0.2462704910738749   0.6708081179210631   0.0200000000000
0.2455788512481667   0.8352620509421251   0.0200000000000
0.3722288399875469   0.0859718879205464   0.0200000000000
0.3733602229954540   0.2537673909030041   0.0200000000000
0.3715961020436922   0.4218407698316826   0.0200000000000
0.3691092302760506   0.5853353960764616   0.0200000000000
0.3713090566148292   0.7551265909200134   0.0200000000000
0.3707718564861535   0.9192700878981356   0.0200000000000
0.4970350482552574   0.0039441847157441   0.0200000000000
0.4973316289922348   0.1704970764348935   0.0200000000000
0.4978882304577938   0.3383147636373171   0.0200000000000
0.4966304155421918   0.5028815622940953   0.0200000000000
0.4964632078938774   0.6687801650190965   0.0200000000000
0.4951738680033633   0.8355501846688346   0.0200000000000
0.6209542826387030   0.0865092814089733   0.0200000000000
0.6219078968347026   0.2541066918868802   0.0200000000000
0.6212012770229494   0.4201208214930043   0.0200000000000
0.6206640107008494   0.5860005394124304   0.0200000000000
0.6207951927512507   0.7524516848173868   0.0200000000000
0.6199346634599923   0.9179140103255119   0.0200000000000
0.7458447465698639   0.0033038980379745   0.0200000000000
0.7463728436949574   0.1714636755822070   0.0200000000000
0.7443617218495540   0.3364562289490710   0.0200000000000
0.7457912804639075   0.5026830813428483   0.0200000000000
0.7442556774435592   0.6685989794599558   0.0200000000000
0.7457567034775481   0.8352546970317115   0.0200000000000
0.8716516630601228   0.0862182481643003   0.0200000000000
0.8713343510339865   0.2523472269042992   0.0200000000000
0.8704978960506030   0.4203023086862495   0.0200000000000
0.8712834618337549   0.5848476503373896   0.0200000000000
0.8713754492030404   0.7534750222151687   0.0200000000000
0.8704806764371974   0.9199371730150034   0.0200000000000
0.0783629157147963   0.0033138627563613   0.0200000000000
0.0795580542910209   0.1708288960039922   0.0200000000000
0.0794454370519840   0.3375273125549330   0.0200000000000
0.0784198139635535   0.5026788608702462   0.0200000000000
0.0782045738220564   0.6694507939762026   0.0200000000000
0.0786331867369055   0.8363015662559289   0.0200000000000
0.2041346373612488   0.0885697277956222   0.0200000000000
0.2049653704406801   0.2559259377912342   0.0200000000000
0.2046973532557762   0.4207394947179471   0.0200000000000
0.2028731419890180   0.5852675090105165   0.0200000000000
0.2015646289278706   0.7545620856915086   0.0200000000000
0.2036951593989324   0.9218072120021713   0.0200000000000
0.3307083772784960   0.0038300350049891   0.0200000000000
0.3307275775143884   0.1706679620019530   0.0200000000000
0.3317405319829295   0.3382976333010906   0.0200000000000
0.3289960490822539   0.5038204086963662   0.0200000000000
0.3270010305272205   0.6702803959409861   0.0200000000000
0.3296710031994450   0.8370825250980298   0.0200000000000
0.4554310796182091   0.0876115366994376   0.0200000000000
0.4561059035789414   0.2546355021084230   0.0200000000000
0.4554324346085835   0.4219216970364619   0.0200000000000
0.4533490918147350   0.5870914810695781   0.0200000000000
0.4541053229966351   0.7528455014487577   0.0200000000000
0.4547050133430948   0.9199218013984602   0.0200000000000
0.5791842858198297   0.0039724140278210   0.0200000000000
0.5800354117035800   0.1706930701349355   0.0200000000000
0.5798437870081811   0.3370138509873234   0.0200000000000
0.5788136010646169   0.5029730766754138   0.0200000000000
0.5794197725928454   0.6690894746811518   0.0200000000000
0.5770704097996991   0.8368782125363631   0.0200000000000
0.7040819697011657   0.0861676644634115   0.0200000000000
0.7041107143719610   0.2538091847828955   0.0200000000000
0.7041055599365698   0.4192625697927825   0.0200000000000
0.7042045643190884   0.5859877869246085   0.0200000000000
0.7029915923713830   0.7529710131010831   0.0200000000000
0.7037911606124428   0.9197245753286275   0.0200000000000
0.8288610054593814   0.0020062982980737   0.0200000000000
0.8287604287370285   0.1689674529625008   0.0200000000000
0.8289409742109475   0.3362543521480357   0.0200000000000
0.8293145627795012   0.5029055067771580   0.0200000000000
0.8289468344483356   0.6700359502738746   0.0200000000000
0.8292159702515641   0.8359234973826548   0.0200000000000
0.9545924410201808   0.0857190328154908   0.0200000000000
0.9538533295921938   0.2525162711196522   0.0200000000000
0.9539599997574145   0.4202533842314681   0.0200000000000
0.9538248373617683   0.5860300545353707   0.0200000000000
0.9541767576950662   0.7531436897477622   0.0200000000000
0.9535257064934416   0.9193530433452785   0.0200000000000
