BoronNitride_undoped_flowing            
   1.00000000000000     
    17.3520000000000003    0.0000000000000000    0.0000000000000000
     0.0000000000000000   15.0272728064999992    0.0000000000000000
     0.0000000000000000    0.0000000000000000   10.6393173196999999
   B    N    Al
    48    48   128
Direct
  0.3337546151659511  0.7271317923197915  0.0107721257162090
  0.0651712703255411  0.0103968379041787  0.9356528494708450
  0.8108721945088790  0.9234817316739232  0.0961707141563362
  0.0406937299681659  0.9701034079195991  0.0516315517159156
  0.1324169389391319  0.9992337160285254  0.1291884159250122
  0.8189755280979482  0.3684269718317179  0.4001242733252022
  0.9913039683990819  0.9339315629840189  0.8956819531181133
  0.0120809507781247  0.2442592043440422  0.4273634613567014
  0.0417118909505929  0.8714582614894320  0.2533869940717577
  0.9894454229978173  0.0476960599060434  0.9799803750596137
  0.1130136911267763  0.9349635261767056  0.4288341490908592
  0.5394809023996905  0.9975362463201560  0.2455885301819254
  0.4137848463247723  0.7209420881920645  0.1749789546193729
  0.3062563188687838  0.6797886414274347  0.2132909193429493
  0.4206046802533827  0.9230424699948091  0.9095260462308030
  0.2383201843979399  0.1689743118651397  0.0694033948522201
  0.5923634997855350  0.8144997631817821  0.3981885238304466
  0.8061965854163214  0.7578958159835222  0.5121075113312222
  0.4865800021827039  0.4979077201830850  0.6239851179984681
  0.5986806627138500  0.4719703515371406  0.8881595691456858
  0.5605678491165955  0.1313946856837443  0.4993375206743745
  0.3747898040558408  0.3576802159175808  0.6724586413640448
  0.5853464538995207  0.8531021151528100  0.5685325106732926
  0.7355023533787116  0.9672143809466862  0.5898681926928045
  0.5837712178560127  0.4562811089002345  0.3060647148448443
  0.7013567684533956  0.1212403499062218  0.4087381612387894
  0.5391749984799588  0.0922734878728759  0.3039895800758750
  0.4582477555499457  0.6763641523511540  0.7231128203544447
  0.3282776801387232  0.3663390295857052  0.5577651457347822
  0.8235487619929343  0.4599383092090086  0.7060561605844928
  0.0308033047017735  0.1028329217259883  0.8142574173612261
  0.7590712012484083  0.9899655482364736  0.1035102248654357
  0.9031941996320119  0.0450646390921929  0.1639063155470150
  0.7428126865738368  0.1076663622390799  0.0392592866914998
  0.8068060136046290  0.3233516133678394  0.8552414989454019
  0.1268114062582779  0.3619034874140781  0.9080958767177640
  0.2552393273802835  0.8729385073590420  0.0315812692763929
  0.7919970637953498  0.2857329278089824  0.1511337526173262
  0.6283042033731530  0.4980728081242116  0.0906780926248851
  0.9438784673145294  0.1292334520688612  0.0444096609951179
  0.0755441647155053  0.1546762428306911  0.0351561980895896
  0.6530545168671782  0.2077575695721106  0.3501303967080696
  0.3077256388128941  0.7148829072110586  0.6556222826996279
  0.8635794779466156  0.0165277770805387  0.8953024148703637
  0.7990355137256209  0.2505271309790841  0.4563603422713022
  0.8177390976785930  0.7884771594410269  0.3676182076528799
  0.0701514154753927  0.7934529853759452  0.1514585220666097
  0.1020743787069426  0.7050570022731837  0.5900574533741353
  0.4063066618715467  0.4091409498465942  0.0812431465767398
  0.0119621760221647  0.8092860166621715  0.0759203899273888
  0.6405609465949417  0.0976444387529236  0.5027538795110315
  0.8385550401717240  0.1847576678074717  0.0193475740537029
  0.9804113382317261  0.1402660228380117  0.3642520070721831
  0.9885433091992234  0.4861850263691125  0.3315901069010588
  0.3877657878338951  0.8876938169340212  0.2311730032304158
  0.9356619249233606  0.3086863535705791  0.0961765378588195
  0.9640000370792134  0.9778975507306212  0.5933365692094155
  0.2697018536266219  0.2716919331551964  0.0774342657510498
  0.2276345784250545  0.7210667054966530  0.2375249041638361
  0.6194262532305643  0.4809561059570737  0.4209298418403826
  0.1926319552463990  0.8737459025487018  0.3820756300375774
  0.6710493771553124  0.5237473736071341  0.1947079506757776
  0.6110575172157576  0.3885128024846867  0.1746944092138462
  0.0104800793847463  0.8399637828372702  0.8216763369550582
  0.1556018224671547  0.4304237605410655  0.3143201041654695
  0.3688679030673876  0.6000107604339201  0.4597519964575797
  0.8515161550996385  0.3551754277137686  0.1303562568899685
  0.5249413137678207  0.5727870466267527  0.6015883443414470
  0.3518821794307894  0.2781727645432957  0.9356898906928682
  0.7477541056361374  0.4062751431629261  0.6565476664230779
  0.1630611045684587  0.5118168371508917  0.0761218282278372
  0.5260413396471515  0.1019923780430081  0.8994563700757398
  0.8576571254330720  0.8996994023187184  0.3725484788985197
  0.6908255363333453  0.9675032648053262  0.9052964700289787
  0.8420423849962850  0.4181156156428837  0.4993038590559988
  0.5527836197907373  0.1807753079430736  0.3890480077795489
  0.7036623855149829  0.7735737374212442  0.6908140238487114
  0.9712473594345294  0.7891925538776929  0.4918639457512161
  0.7183155952945465  0.2585744398121458  0.6556759092561445
  0.9135986342983731  0.9996078735840463  0.3152762252563771
  0.0394540139447961  0.3165799022965365  0.3746306139504454
  0.8507901988937183  0.8901092105016691  0.9716101699832936
  0.8351091809117378  0.0249286971433145  0.7551045190844224
  0.8018919604251525  0.5029714507605547  0.0946022709997861
  0.0767690387352740  0.6543493550229572  0.8910523732680341
  0.7769901795737243  0.9355664651920192  0.7431403273078321
  0.7902422665997536  0.2141877017145487  0.6563699490310567
  0.7288254629063214  0.8862945027788255  0.7897872916944612
  0.3166570265484414  0.3971539520825296  0.1178991975880871
  0.1715397953070331  0.4745986309130194  0.9934961934376730
  0.1716130437151563  0.9059455879302297  0.0759746901001258
  0.1335759066262625  0.1688164738939461  0.9709339390240727
  0.9424401747506396  0.2319771863467825  0.1954958597455630
  0.8476262467237439  0.2718952046469158  0.8054208220000793
  0.0854968271123935  0.6819880659873582  0.2057363573704222
  0.2199401318942038  0.7040239241717291  0.6963358846244467
  0.6242174228936733  0.0777551619018886  0.9241875751585329
  0.7069823746766436  0.0828431576884145  0.6867077439175360
  0.0296310998311054  0.0809098271196485  0.2462785466189089
  0.0647546167480156  0.6562930759496208  0.7734630256117938
  0.2785927468356748  0.9234549967999151  0.3025942892547433
  0.7032966466614626  0.6655960305139784  0.2953040198138079
  0.0051752914536593  0.4111207615953058  0.2037634386837427
  0.1460690756702944  0.0886443720502426  0.3710584870911868
  0.6198444128173518  0.6595358278844602  0.0362990848423554
  0.2817803510737968  0.0664491168713636  0.3819837074879977
  0.8763670915002622  0.4206070456334215  0.2731979421875431
  0.7529645944044644  0.3239936758981372  0.5742055199221962
  0.5578472286792702  0.5437220122894597  0.4206893748123862
  0.6324853357902525  0.0662530887340018  0.3358853100187317
  0.0024159091959062  0.0988288364249437  0.5964047666420036
  0.5570493405721281  0.1730019855237082  0.1105868993004483
  0.0938194530934270  0.1625740756268571  0.5666239410703749
  0.4877313223537509  0.8126798222493312  0.2334089557231782
  0.6651882953375455  0.7626395145930639  0.5124058945100266
  0.9078762741476392  0.9025593864890528  0.2176078012810853
  0.1124950119833319  0.2440539867886825  0.2481248298442524
  0.0189831036646847  0.3988237886795717  0.4682542181319492
  0.8836624062074681  0.2888297115759330  0.5773879828828504
  0.4243600988046846  0.3124054903251881  0.0256012009968052
  0.3571901110580937  0.7093814218280993  0.5113093511519494
  0.4673433869641251  0.4000501143154537  0.5535180603691447
  0.3385999742356883  0.4459019976159217  0.8375216031545175
  0.0661278145154805  0.7922508584396282  0.3475015253391787
  0.8064864096331515  0.6659525876681136  0.1652050866425075
  0.3600866849600037  0.1085253610956269  0.0721376509402598
  0.4570993701913130  0.9963801703601579  0.5726733835115559
  0.2057257195499650  0.8323721381107987  0.6655183428264358
  0.7084209399731067  0.8640353959328027  0.3160638192303764
  0.2272896010537816  0.0430438978912840  0.6464035425776978
  0.8947487057424741  0.3971775327695593  0.7630666412494127
  0.2695050994264297  0.4734503385650298  0.6699966464885830
  0.7872837016458775  0.0796444980579744  0.5070197850693131
  0.3605851415889643  0.1285544724605316  0.7356209219916165
  0.0654873632257079  0.8868396853263284  0.5558409658372584
  0.9032323671787807  0.1982449291815514  0.3589841705915584
  0.3911338672689684  0.1992392700908824  0.2071200347117088
  0.2140301043142163  0.1146608635322916  0.9264882068953417
  0.0888996250168480  0.8567914876549360  0.9437667573307525
  0.6898196344342871  0.4810827372405083  0.5358202253577337
  0.4766071736409891  0.5630149574386865  0.8152993716759526
  0.6538458043687084  0.9490345382086436  0.0915589741343827
  0.2258436029547437  0.1879002097152963  0.7217298241031013
  0.1890317706162033  0.7735434630207195  0.0615703458403506
  0.4532616136630467  0.5953302910782112  0.2744398759439543
  0.7063955804551089  0.2954931991715916  0.0636541801873586
  0.5622035143114538  0.7249047044657514  0.6696897555633621
  0.2768796277456602  0.5001162666493219  0.4444069138622571
  0.2157832687947256  0.3370986769950544  0.6053361045822490
  0.0274283774561977  0.2368492012995500  0.8936678234493101
  0.2140504656142022  0.5951915183185952  0.2830886369402748
  0.0036679294582085  0.6443066294802492  0.1501165575363839
  0.3637554494540957  0.9252962752667432  0.4445102915994608
  0.8912417899675137  0.1417297423217531  0.6025484801517483
  0.6481268269034249  0.6311023491145087  0.7987982753458179
  0.1827545877662087  0.9296199771670008  0.8445802984783592
  0.3369909875262182  0.0322985440335257  0.9352453437361775
  0.7151043629843206  0.5513374341903565  0.0199095887060658
  0.6004214038016549  0.7575303085617229  0.1355912992227541
  0.7530421901882197  0.7062642669174067  0.8628845476016260
  0.8849686173059896  0.5608752596723076  0.2964634112322781
  0.4937735970823652  0.6772759031736959  0.4250102214860977
  0.0757422272653532  0.4550038455567380  0.9336528882769484
  0.2619732782486770  0.3476223335092532  0.8971487879054706
  0.3802983856962125  0.6255596163806822  0.8225204871669837
  0.1192397509290784  0.4597133150660808  0.5862297145418779
  0.3973226123143357  0.7803102813881680  0.8401385110865861
  0.6282372161771319  0.6107741651242208  0.6041421718618027
  0.4230217013964392  0.6171328026371560  0.6201055820794306
  0.7750215573659237  0.8699325990715840  0.5385059845112884
  0.9905002343911823  0.7190404227079570  0.6035893601856364
  0.7359141178755785  0.4548776079208245  0.8793976939825807
  0.2123325831552562  0.3492650461147311  0.2063409825507880
  0.8080857964500735  0.6051291093861865  0.7386697007616981
  0.5578557123694874  0.3116468670903471  0.0876455737926329
  0.4608849354126662  0.0245988021584407  0.7654312250231541
  0.4094583421795255  0.1998548779802481  0.4982318065694599
  0.1268357687906431  0.5949667100897923  0.0187160507256991
  0.5128759222830638  0.7169525445380341  0.8995273716942773
  0.7467793319952165  0.0262354010322665  0.2657077481833580
  0.1353397418896351  0.2716759743331413  0.7574986890209280
  0.0854476102955969  0.6494403734802439  0.4496315561398598
  0.9540103555640798  0.9269969531954306  0.4029970327475813
  0.2489485373165043  0.5529607864033217  0.8746026368303728
  0.2879137333029685  0.2178589396776706  0.5552664523041713
  0.4793598439818605  0.8473382994341230  0.0400791802311437
  0.2741918872697372  0.8198922966062894  0.8595652885481784
  0.9292863651727487  0.0037827622407487  0.7679496535421758
  0.3474608152466211  0.8985904298371471  0.0931633377514017
  0.7319521119908003  0.4941755137783353  0.3513766403291278
  0.4699448101088712  0.0218004182128739  0.0515154478004756
  0.8971456105278417  0.7322141009649332  0.3697473577613221
  0.0759695434599090  0.2882247919506171  0.0678830122967094
  0.9605561060540977  0.8430878348196961  0.6885140727610114
  0.4122746319974286  0.1710888227050996  0.8966352179479059
  0.8973571787828508  0.4334989800623586  0.0373282344644592
  0.3516437164137182  0.9084499533983592  0.7460821546859158
  0.8113716853611534  0.5819472220752387  0.5054546514311288
  0.4274521331337496  0.4646928290151874  0.3396697482410290
  0.4896880265034034  0.4625335137369943  0.0847537547461123
  0.4602062913554052  0.3378107338243961  0.7517652273515442
  0.3225591086169004  0.3149444216209297  0.2826595978109835
  0.0299946497746478  0.2896248347271249  0.6166206186876284
  0.5860604149508252  0.2817387295239801  0.4698781792569132
  0.5790367064638133  0.4775591549407989  0.7241794089318894
  0.2133139277335291  0.6646967156374783  0.5238565379569589
  0.7571742347106357  0.4459090958090502  0.2054036523824765
  0.5895603013501338  0.9924250642413146  0.5345629043201799
  0.4289427981304629  0.8322247549624525  0.6218206571577949
  0.9764683068817586  0.5008239159089892  0.6234473557487255
  0.8546107108055052  0.5416221097229913  0.8824288403804089
  0.6718536681608953  0.3362499188893308  0.7189137588916725
  0.7400367752605945  0.1498557169770524  0.8493816857776637
  0.6442352707836272  0.2395865313914335  0.9252667556699941
  0.8231066801262075  0.8080379205380117  0.0658354181457376
  0.5219444935987302  0.2088176920502792  0.7278085577639003
  0.1790746301262346  0.7234300142940189  0.8581652209852332
  0.9439387831563941  0.6787740132050464  0.8931660288553834
  0.4174928863894943  0.5984829903461869  0.0217670631043438
  0.5835721752567313  0.8885698815460025  0.2521120022832242
  0.8790936308494279  0.1583280799575140  0.8114773937678187
  0.3691331771151329  0.8031521079823567  0.3994573590700418
  0.7992703687237382  0.1530346742088217  0.1826653708303029
  0.2774710847671556  0.4804918476326314  0.2211013143764395
 
 -0.66608122E-01  0.83382804E-01 -0.11122502E-01
 -0.29459589E-01  0.29533652E-01  0.43214739E-02
  0.27609593E-01 -0.98615381E-02 -0.99967105E-02
 -0.34687311E-01 -0.31359116E-01 -0.18434868E-01
 -0.40695434E-01 -0.14383081E-01 -0.36690973E-01
  0.15867758E-01  0.21656653E-01 -0.69808803E-01
  0.19653013E-01  0.34054843E-02  0.41832474E-01
 -0.58616636E-01  0.19527734E-01 -0.40141152E-01
  0.85188263E-01  0.65447760E-01 -0.31194153E-02
  0.16577446E-01 -0.89717281E-01 -0.37886033E-02
 -0.13289138E-02 -0.22462207E-01 -0.16160373E-01
 -0.50595277E-02 -0.37521260E-01  0.11780492E-01
 -0.51955861E-01 -0.23290802E-02 -0.19115681E-01
  0.11276136E-01 -0.43479254E-01 -0.21363189E-01
  0.34036860E-01 -0.47969161E-01  0.23239454E-01
 -0.10427220E-01 -0.40584395E-01  0.11590711E-01
 -0.30880929E-02  0.10037949E+00  0.13034496E-01
  0.87848577E-02  0.40108184E-01  0.78674586E-02
 -0.21542104E-01 -0.12627633E-01  0.16669353E-02
 -0.53844051E-02  0.27504186E-01  0.23061086E-01
 -0.97353902E-01  0.95366124E-01 -0.84700949E-02
  0.54569492E-01 -0.71346057E-01 -0.26002589E-02
  0.33414383E-01  0.35200235E-01  0.74011058E-01
  0.69816686E-01  0.13451372E-01 -0.41731006E-01
 -0.13374044E-01  0.36236003E-01  0.66863523E-02
 -0.15182850E-01 -0.45258542E-01  0.10039967E-01
  0.38799530E-02  0.26586547E-01  0.14607254E-01
  0.71535273E-02  0.53713400E-01  0.99411605E-02
  0.54530239E-01  0.49906202E-01  0.15893709E-01
 -0.68870746E-01 -0.53493087E-01 -0.54779972E-01
 -0.11724714E+00 -0.49342661E-01  0.84751208E-02
 -0.45651635E-01  0.10855695E-02  0.34078015E-01
 -0.71422263E-02 -0.19318555E-01  0.63388384E-02
 -0.19235490E-01  0.15230658E-01  0.37110500E-01
  0.12943869E-01 -0.77968991E-01 -0.48768950E-01
 -0.93413804E-02 -0.24741842E-01  0.44237260E-01
 -0.53378348E-01  0.25707225E-01 -0.13014796E-01
  0.23990664E-01  0.49846623E-01  0.30076117E-01
  0.27833507E-01 -0.12816628E-01 -0.44271142E-01
  0.16101979E-02 -0.26917548E-02 -0.87454876E-02
  0.88174718E-01 -0.50629261E-02 -0.46468095E-01
  0.68783969E-02 -0.22836172E-01  0.67672933E-01
  0.67023980E-02 -0.46394726E-01  0.17439868E-01
 -0.13448369E-01  0.43010166E-02 -0.14518366E-01
 -0.33083010E-01  0.66786406E-02 -0.72685354E-01
 -0.46419832E-01 -0.25756798E-01  0.18147605E-01
  0.42722113E-01  0.26856164E-02 -0.37592878E-01
 -0.27472467E-02 -0.74450323E-02  0.31606524E-01
 -0.15328646E-01  0.62700658E-02  0.18850971E-01
  0.97625083E-02 -0.81204889E-01  0.13012364E-01
 -0.24701453E-01 -0.60771552E-01 -0.30103365E-01
  0.10374751E-01  0.36255421E-01 -0.63971015E-02
 -0.44600647E-02  0.10277925E-02  0.22662546E-01
 -0.16092826E-01  0.34163102E-01 -0.15427315E-01
  0.56688923E-02  0.60846641E-01  0.40102960E-02
 -0.45321441E-01 -0.76335097E-01  0.19508668E-01
  0.29894513E-02  0.28341490E-01 -0.56148769E-01
  0.55750636E-02  0.32941322E-01  0.11736544E-01
 -0.65107527E-01  0.23884336E-01  0.34755975E-02
  0.63969042E-02 -0.14904713E-01 -0.15128721E-01
 -0.30310092E-01  0.17395443E-02  0.20122936E-01
 -0.30495017E-01  0.27165351E-01  0.32917511E-01
  0.97502109E-02  0.55479039E-01  0.78605876E-01
 -0.83027614E-02 -0.14070725E-01 -0.57196006E-01
 -0.29657163E-01  0.54253349E-01  0.58741668E-01
 -0.25230313E-01 -0.55835146E-01  0.69667050E-02
  0.14988759E-01 -0.72997969E-02  0.20318881E-01
 -0.57185342E-01  0.63970298E-01 -0.25123769E-01
  0.15663671E-01 -0.33729425E-01 -0.17218025E-01
  0.23893301E-01 -0.29699627E-01  0.27699492E-01
 -0.52393469E-01 -0.13655963E-02 -0.21070789E-01
  0.23689894E-01  0.14188546E-01  0.21304420E-01
  0.25839636E-01 -0.17839472E-01  0.33021114E-02
 -0.21921166E-02  0.35063877E-02 -0.42914330E-01
  0.61781958E-01 -0.28150942E-01 -0.26818133E-01
  0.13870082E-01  0.81850023E-02 -0.54641293E-01
 -0.13541039E-01  0.14283474E-01 -0.21444396E-01
  0.40710659E-01 -0.32912831E-01 -0.10314959E-01
  0.88357120E-02 -0.62868001E-01  0.34706030E-01
  0.30606477E-01  0.27868858E-01 -0.31896410E-01
  0.35869736E-01 -0.29343320E-01 -0.41848659E-01
 -0.34477480E-01 -0.25362087E-01  0.86918229E-02
  0.61065982E-01 -0.18061230E-01 -0.24070166E-01
 -0.19796635E-01 -0.16404527E-01  0.23575524E-01
 -0.31010573E-01 -0.67577288E-02 -0.32308719E-01
 -0.36376832E-01 -0.64773240E-01 -0.11558531E-01
 -0.65210893E-02  0.11605277E-02  0.43722055E-01
 -0.25029556E-01  0.43734390E-01 -0.20229787E-01
  0.87672523E-01  0.11072672E-01  0.26900678E-02
 -0.53087744E-02 -0.12207047E-02 -0.64513776E-02
  0.31406565E-01 -0.26343668E-02 -0.31961625E-02
  0.17325139E-01 -0.11656722E-01  0.80065281E-01
 -0.24937612E-01 -0.46581823E-01 -0.41366380E-01
 -0.42204228E-01  0.21865817E-01  0.21978826E-02
  0.14197026E-01  0.34164491E-01  0.48204698E-01
  0.16594180E-01 -0.95589738E-01 -0.44861301E-01
 -0.19853386E-01  0.79010260E-02  0.11391568E-01
 -0.38895578E-02 -0.24912318E-01 -0.25437019E-01
 -0.34876674E-01 -0.18135909E-01  0.32198136E-01
  0.51362508E-02 -0.13195576E-01  0.81828963E-02
 -0.13757468E-01 -0.38331044E-02  0.13884399E-02
 -0.16162165E-01 -0.27766014E-01  0.39460539E-01
  0.71341752E-02  0.26122821E-01  0.32996499E-01
  0.24963470E-01  0.43092492E-01 -0.62845287E-02
 -0.75290599E-02 -0.13824665E-01 -0.35002692E-01
  0.11615166E-02  0.18407555E-01  0.72201801E-02
 -0.14947511E-01 -0.37396407E-01 -0.34652006E-01
  0.21699564E-02  0.12719791E-01 -0.12047795E-01
  0.21452166E-01  0.34540466E-01 -0.13524434E-02
 -0.27974119E-01 -0.18867190E-03 -0.29042948E-01
 -0.21787967E-01 -0.37842564E-02  0.24539260E-01
  0.75702863E-02 -0.28872312E-01  0.47788547E-01
 -0.19118726E-01 -0.21431636E-01  0.95169885E-03
 -0.19912913E-01 -0.17055528E-01 -0.38110997E-02
 -0.14061992E-01 -0.79232795E-02 -0.20490666E-01
  0.14557473E-01  0.22603952E-01  0.39212379E-02
  0.35853934E-02 -0.11611952E-01  0.28897447E-01
 -0.98692604E-02 -0.44307590E-01 -0.17188175E-01
 -0.18843890E-01  0.16693987E-01 -0.20810757E-01
 -0.29750210E-01  0.61897211E-02  0.11123119E-01
 -0.23139635E-01 -0.38096417E-01  0.38867485E-01
 -0.52513660E-02 -0.87234470E-01  0.21396340E-01
  0.24900217E-01  0.14201119E-01  0.31130456E-01
 -0.10660412E-01 -0.27156548E-01  0.10911571E-01
  0.44874037E-01  0.43060663E-02 -0.15992924E-01
  0.78001664E-04  0.15291037E-01  0.25756352E-01
 -0.42616348E-01 -0.16572682E-01 -0.22488519E-03
  0.21194477E-01  0.17312421E-01  0.75211756E-02
  0.17425068E-01 -0.14153255E-02 -0.23919929E-01
 -0.91695948E-02  0.11144320E-01 -0.22245810E-02
  0.27006928E-02 -0.14471492E-01  0.31293207E-01
  0.62109397E-02  0.24346973E-01 -0.36032198E-01
  0.38199234E-01  0.62322975E-02 -0.33627335E-01
  0.32288001E-01 -0.39530986E-01 -0.24225554E-01
  0.29107988E-01  0.17705664E-01 -0.36370840E-02
 -0.16412433E-02  0.83099042E-02 -0.20050004E-01
  0.27621703E-01  0.39688148E-02 -0.14780885E-01
  0.21495179E-01 -0.10441063E-01  0.55635465E-01
 -0.36246733E-01  0.26536412E-01 -0.24204262E-01
 -0.91507730E-02  0.30650942E-01  0.18840929E-01
 -0.68356704E-02 -0.36929163E-01 -0.12680373E-01
 -0.11335772E-01 -0.21545835E-01  0.18010046E-02
 -0.21336302E-01  0.21898341E-01  0.56080307E-02
  0.17728134E-01  0.14152884E-01  0.12490542E-01
  0.21986995E-01 -0.23451638E-02  0.13919636E-01
 -0.33435911E-01 -0.53360997E-01  0.66188952E-02
  0.30597148E-01 -0.39211167E-02 -0.36946789E-01
 -0.35198699E-04 -0.21912991E-01  0.71376795E-02
  0.45599523E-01 -0.96714896E-02  0.18418631E-01
 -0.31744007E-01 -0.44384970E-02 -0.60564218E-02
  0.15184816E-01  0.39504414E-01  0.60828989E-01
 -0.29584370E-01 -0.17652565E-01 -0.22184174E-01
 -0.64260312E-02  0.20493624E-01 -0.10302697E-01
 -0.15364554E-01  0.39183156E-01 -0.46535244E-01
 -0.19253837E-01 -0.32188366E-01  0.22644315E-01
  0.29927879E-02 -0.34554412E-01 -0.55654828E-01
  0.30155354E-01  0.20758037E-01  0.31525882E-01
  0.22950660E-01 -0.19351538E-01 -0.23177954E-02
 -0.45525552E-01 -0.97058075E-02 -0.36605103E-01
  0.24765153E-01  0.10766568E-01  0.93865533E-02
 -0.18335272E-01  0.18381891E-01 -0.41673912E-01
 -0.35344118E-02  0.22016477E-01 -0.10420415E-01
  0.21536770E-01 -0.51638913E-02 -0.12798550E-01
  0.32649539E-01  0.98397025E-02  0.18099658E-02
 -0.26431958E-01  0.25584500E-01  0.22162200E-01
 -0.57704913E-02  0.87650982E-02  0.11430173E-01
  0.32713884E-01  0.10679220E-01  0.14494839E-01
 -0.20496747E-01  0.97779818E-02  0.17115417E-01
  0.29081917E-01  0.36829671E-01  0.25701190E-01
  0.11477497E-01  0.48484200E-02 -0.26401367E-01
  0.21912388E-01 -0.94734416E-02  0.45545044E-01
 -0.17193237E-01  0.27150193E-01  0.17278965E-01
  0.15153895E-02  0.11959073E-01 -0.76047743E-02
 -0.20766962E-01 -0.54586467E-01  0.66318858E-01
  0.27523110E-01  0.51393864E-01 -0.13192669E-01
 -0.22411210E-02 -0.45814981E-02 -0.71428925E-02
  0.13906077E-01  0.22400517E-01  0.40782255E-01
  0.28360647E-02 -0.24125935E-01  0.83275190E-02
 -0.38058756E-01 -0.47620612E-01  0.13047677E-01
 -0.83605999E-02  0.99333443E-02 -0.11173908E-01
 -0.55824239E-01  0.21442823E-01 -0.31154495E-01
  0.14003998E-01  0.23441386E-02 -0.18548767E-02
  0.56352575E-02  0.18120632E-01 -0.35201925E-01
  0.35209589E-01  0.83689197E-02 -0.12363505E-01
  0.96160534E-02  0.49945224E-02  0.24562520E-01
  0.21249791E-01  0.17879213E-01 -0.10836146E-01
 -0.18460850E-01  0.22225504E-01  0.24403029E-01
  0.46539289E-01 -0.78493751E-02  0.14600418E-01
 -0.12981321E-01 -0.17597423E-01 -0.65805037E-02
 -0.40970514E-02  0.19122827E-01 -0.72040570E-02
 -0.24388727E-01  0.29852605E-01  0.15765103E-01
 -0.16432488E-01 -0.15814631E-01 -0.32304521E-01
 -0.10914157E-01  0.26490960E-01  0.21011131E-01
  0.14101451E-01  0.24231072E-02 -0.41428271E-01
  0.13386260E-01  0.47017412E-01  0.32899820E-01
 -0.12092318E-01  0.11735075E-01 -0.22207228E-01
 -0.73733588E-01  0.24183004E-02  0.47764116E-02
  0.39313915E-01  0.25063432E-01 -0.37053441E-01
  0.43480742E-01 -0.27194802E-01  0.17450644E-01
  0.68754886E-01  0.16084248E-01 -0.84889064E-04
  0.66355328E-02 -0.16230728E-01 -0.17042521E-01
 -0.44443510E-01  0.13997800E-01  0.58550218E-02
 -0.12916431E-01 -0.73224992E-02 -0.13976754E-01
 -0.32780772E-01  0.14099585E-01  0.75743580E-02
 -0.58990376E-02 -0.13603318E-01 -0.40837542E-02
  0.18830879E-01  0.78550315E-02 -0.56124942E-01
  0.48878795E-02 -0.15483184E-01 -0.38558430E-01
  0.36618059E-01  0.66358388E-02 -0.11971272E-01
  0.18145382E-02  0.14090388E-01  0.13521245E-01
  0.40463781E-01 -0.76133099E-02 -0.11481679E-01
 -0.60184599E-02  0.11985071E-01 -0.23903339E-01
 -0.13146858E-01  0.43279843E-02 -0.19154280E-02
  0.92243740E-02 -0.39154486E-01  0.41059766E-02
 -0.33400168E-01  0.50447259E-02 -0.18639557E-01
  0.58155413E-03 -0.77288950E-02  0.32417435E-01
  0.24823550E-01  0.17193689E-01 -0.19597629E-01
  0.22364210E-01  0.41284567E-02  0.16346332E-02
  0.11394998E-03  0.28640856E-02 -0.29546698E-01
  0.18763093E-01  0.23604043E-01  0.82123965E-02
 -0.11095610E-01  0.94158290E-02 -0.10469281E-01
  0.29588046E-01 -0.61681231E-02  0.28883959E-01
  0.41506622E-01 -0.25110167E-01  0.44375380E-01
 -0.82832737E-02  0.19501873E-01  0.30739438E-01
 -0.14789787E-01  0.17004552E-01  0.19506369E-01
 
           1
  0.547311962346887     
  0.10000000E+01  0.00000000E+00  0.00000000E+00  0.00000000E+00
  0.33165368E+00  0.73016870E+00  0.10199958E-01
  0.64242064E-01  0.11472490E-01  0.93587516E+00
  0.81174305E+00  0.92312256E+00  0.95656459E-01
  0.39599632E-01  0.96896127E+00  0.50683218E-01
  0.13113333E+00  0.99870987E+00  0.12730094E+00
  0.81947602E+00  0.36921573E+00  0.39653314E+00
  0.99192386E+00  0.93405559E+00  0.89783392E+00
  0.10232081E-01  0.24497043E+00  0.42529850E+00
  0.44398875E-01  0.87384195E+00  0.25322652E+00
  0.98996830E+00  0.44428445E-01  0.97978548E+00
  0.11297177E+00  0.93414542E+00  0.42800282E+00
  0.53932132E+00  0.99616968E+00  0.24619455E+00
  0.41214607E+00  0.72085726E+00  0.17399560E+00
  0.30661199E+00  0.67820507E+00  0.21219195E+00
  0.42167826E+00  0.92129537E+00  0.91072154E+00
  0.23799129E+00  0.16749618E+00  0.69999649E-01
  0.59226610E+00  0.81815571E+00  0.39885905E+00
  0.80647367E+00  0.75935661E+00  0.51251223E+00
  0.48590053E+00  0.49744781E+00  0.62407087E+00
  0.59851083E+00  0.47297209E+00  0.88934589E+00
  0.55749714E+00  0.13486804E+00  0.49890180E+00
  0.37651102E+00  0.35508170E+00  0.67232488E+00
  0.58640040E+00  0.85438415E+00  0.57233982E+00
  0.73770449E+00  0.96770430E+00  0.58772145E+00
  0.58334938E+00  0.45760087E+00  0.30640868E+00
  0.70087788E+00  0.11959198E+00  0.40925464E+00
  0.53929738E+00  0.93241803E-01  0.30474101E+00
  0.45847339E+00  0.67832046E+00  0.72362422E+00
  0.32999766E+00  0.36815668E+00  0.55858276E+00
  0.82137646E+00  0.45799002E+00  0.70323815E+00
  0.27105128E-01  0.10103580E+00  0.81469340E+00
  0.75763127E+00  0.99000509E+00  0.10526328E+00
  0.90296892E+00  0.44361033E-01  0.16423240E+00
  0.74220597E+00  0.10822108E+00  0.41168340E-01
  0.80721429E+00  0.32051189E+00  0.85273271E+00
  0.12651676E+00  0.36100236E+00  0.91037155E+00
  0.25355568E+00  0.87387480E+00  0.30911757E-01
  0.79275377E+00  0.28754840E+00  0.15268094E+00
  0.62918212E+00  0.49760601E+00  0.88400679E-01
  0.94392926E+00  0.12913542E+00  0.43959772E-01
  0.78325347E-01  0.15449184E+00  0.32765768E-01
  0.65327147E+00  0.20692585E+00  0.35361165E+00
  0.30793704E+00  0.71319315E+00  0.65651943E+00
  0.86315529E+00  0.16684425E-01  0.89455556E+00
  0.79799202E+00  0.25077038E+00  0.45262123E+00
  0.81627494E+00  0.78753906E+00  0.36855176E+00
  0.71498944E-01  0.79355080E+00  0.14952465E+00
  0.10198773E+00  0.70478584E+00  0.59168337E+00
  0.40582317E+00  0.40936931E+00  0.82212886E-01
  0.12270102E-01  0.80632843E+00  0.76589777E-01
  0.63978182E+00  0.95431063E-01  0.50120529E+00
  0.83888228E+00  0.18607814E+00  0.19018492E-01
  0.98027066E+00  0.14030346E+00  0.36541782E+00
  0.98803571E+00  0.48742929E+00  0.33079649E+00
  0.38794459E+00  0.88990993E+00  0.23137930E+00
  0.93423241E+00  0.30590613E+00  0.97180110E-01
  0.96409433E+00  0.97892978E+00  0.59044814E+00
  0.26987770E+00  0.27289170E+00  0.78038022E-01
  0.22558097E+00  0.72193660E+00  0.23770370E+00
  0.61962802E+00  0.48041326E+00  0.42015158E+00
  0.19167592E+00  0.87380926E+00  0.38311080E+00
  0.67008751E+00  0.52473677E+00  0.19640131E+00
  0.61136506E+00  0.39053342E+00  0.17873808E+00
  0.10218196E-01  0.83945131E+00  0.81873404E+00
  0.15466638E+00  0.43239973E+00  0.31734192E+00
  0.36807210E+00  0.59797717E+00  0.46011038E+00
  0.85198893E+00  0.35490956E+00  0.13140151E+00
  0.52313759E+00  0.57511692E+00  0.60029592E+00
  0.35237624E+00  0.27694430E+00  0.93480415E+00
  0.74850774E+00  0.40519345E+00  0.65797259E+00
  0.16140852E+00  0.51176710E+00  0.75037896E-01
  0.52678856E+00  0.10250914E+00  0.90055232E+00
  0.85847215E+00  0.89904967E+00  0.37271835E+00
  0.69075639E+00  0.96763097E+00  0.90308885E+00
  0.84399109E+00  0.41709032E+00  0.49792427E+00
  0.55322111E+00  0.18107342E+00  0.38623713E+00
  0.70323528E+00  0.77409396E+00  0.68971087E+00
  0.97253144E+00  0.78799383E+00  0.49133332E+00
  0.71859429E+00  0.25628471E+00  0.65746127E+00
  0.91456402E+00  0.62289203E-03  0.31363540E+00
  0.40585407E-01  0.31551118E+00  0.37247782E+00
  0.84970272E+00  0.88918549E+00  0.97205730E+00
  0.83703531E+00  0.24270885E-01  0.75386629E+00
  0.80126754E+00  0.50237398E+00  0.95815052E-01
  0.75790912E-01  0.65410323E+00  0.88939034E+00
  0.77584279E+00  0.93320734E+00  0.74254573E+00
  0.79003658E+00  0.21422997E+00  0.65861912E+00
  0.72803599E+00  0.88788736E+00  0.78874662E+00
  0.31942237E+00  0.39755723E+00  0.11803758E+00
  0.17137235E+00  0.47455417E+00  0.99316432E+00
  0.17260366E+00  0.90584964E+00  0.75810272E-01
  0.13412237E+00  0.16839192E+00  0.97505269E+00
  0.94165360E+00  0.23028062E+00  0.19336787E+00
  0.84629505E+00  0.27269158E+00  0.80553389E+00
  0.85944626E-01  0.68323238E+00  0.20821612E+00
  0.22046354E+00  0.70054243E+00  0.69402811E+00
  0.62359121E+00  0.78042927E-01  0.92477358E+00
  0.70685969E+00  0.81935820E-01  0.68539920E+00
  0.28531029E-01  0.80249295E-01  0.24793490E+00
  0.64916623E-01  0.65581248E+00  0.77388397E+00