BoronNitride_undoped_flowing
   1.00000000000000     
    17.3520000000000003    0.0000000000000000    0.0000000000000000
     0.0000000000000000   15.0272728064999992    0.0000000000000000
     0.0000000000000000    0.0000000000000000   10.6393173196999999
   B    N    Al
    48    48   128
Direct
 -0.0048529096853504  0.0030419964656040 -0.0044598465364533
 -0.0039017672247155  0.1694012190192257 -0.0041431405754863
 -0.0041023560570815  0.3365554202265412  0.0143602010010858
 -0.0042700299299418  0.5029708642698566  0.0029661431440102
 -0.0043771064056019  0.6696085603180524 -0.0008688995242250
 -0.0050741191122555  0.8365070906649605 -0.0123531551626559
  0.1198423998282993  0.0873974303630408 -0.0008366492327707
  0.1211106418053376  0.2536507484729321 -0.0005155292949480
  0.1219424875059605  0.4210348265200848 -0.0000686324008427
  0.1196149041066497  0.5863078936980844  0.0157337928256139
  0.1197574363094119  0.7523860927885704 -0.0012274529815504
  0.1199535019391925  0.9201187838326835 -0.0097449872969028
  0.2481865808734788  0.0032895874204174 -0.0354689119387058
  0.2458384243379989  0.1700571220955475  0.0196531812960075
  0.2471370384316818  0.3377264150350615 -0.0412821081149599
  0.2452603074669633  0.5022578185746317  0.0127820420224355
  0.2462704910738749  0.6708081179210631  0.0470712666753193
  0.2455788512481667  0.8352620509421251 -0.0238128600298090
  0.3722288399875469  0.0859718879205464  0.0133143271988165
  0.3733602229954540  0.2537673909030041  0.0010391893446692
  0.3715961020436922  0.4218407698316826  0.0142501364989229
  0.3691092302760506  0.5853353960764616 -0.0126085386026180
  0.3713090566148292  0.7551265909200134 -0.0034280459266251
  0.3707718564861535  0.9192700878981356  0.0126396723377873
  0.4970350482552574  0.0039441847157441  0.0190609235792056
  0.4973316289922348  0.1704970764348935  0.0219600304452573
  0.4978882304577938  0.3383147636373171  0.0138168721864691
  0.4966304155421918  0.5028815622940953 -0.0157177755841201
  0.4964632078938774  0.6687801650190965  0.0148371214824447
  0.4951738680033633  0.8355501846688346  0.0074779451525160
  0.6209542826387030  0.0865092814089733  0.0194635923682943
  0.6219078968347026  0.2541066918868802  0.0129647794354415
  0.6212012770229494  0.4201208214930043 -0.0139488830309108
  0.6206640107008494  0.5860005394124304 -0.0206791524563922
  0.6207951927512507  0.7524516848173868 -0.0418476070140998
  0.6199346634599923  0.9179140103255119  0.0310537054483961
  0.7458447465698639  0.0033038980379745  0.0146609712387572
  0.7463728436949574  0.1714636755822070  0.0443361812147432
  0.7443617218495540  0.3364562289490710 -0.0052578532282745
  0.7457912804639075  0.5026830813428483 -0.0226782340565151
  0.7442556774435592  0.6685989794599558  0.0002130064563268
  0.7457567034775481  0.8352546970317115  0.0017926439539627
  0.8716516630601228  0.0862182481643003  0.0360809261406358
  0.8713343510339865  0.2523472269042992 -0.0003662196687180
  0.8704978960506030  0.4203023086862495 -0.0100862384208912
  0.8712834618337549  0.5848476503373896 -0.0134587937288812
  0.8713754492030404  0.7534750222151687  0.0014599427869123
  0.8704806764371974  0.9199371730150034  0.0057568955217490
  0.0783629157147963  0.0033138627563613 -0.0100601900474075
  0.0795580542910209  0.1708288960039922  0.0044957013596241
  0.0794454370519840  0.3375273125549330 -0.0105630970915926
  0.0784198139635535  0.5026788608702462  0.0147311679401609
  0.0782045738220564  0.6694507939762026  0.0031944764399642
  0.0786331867369055  0.8363015662559289 -0.0245540818106780
  0.2041346373612488  0.0885697277956222 -0.0147503855495649
  0.2049653704406801  0.2559259377912342  0.0086242474253947
  0.2046973532557762  0.4207394947179471 -0.0054861666092297
  0.2028731419890180  0.5852675090105165  0.0275907707037135
  0.2015646289278706  0.7545620856915086  0.0218601205121883
  0.2036951593989324  0.9218072120021713  0.0030257098967861
  0.3307083772784960  0.0038300350049891  0.0008533476503023
  0.3307275775143884  0.1706679620019530  0.0080295427754095
  0.3317405319829295  0.3382976333010906 -0.0017757230373817
  0.3289960490822539  0.5038204086963662  0.0137185174120153
  0.3270010305272205  0.6702803959409861 -0.0108466539897163
  0.3296710031994450  0.8370825250980298  0.0048598812191690
  0.4554310796182091  0.0876115366994376  0.0185917317196997
  0.4561059035789414  0.2546355021084230  0.0231605287052376
  0.4554324346085835  0.4219216970364619  0.0150800510552876
  0.4533490918147350  0.5870914810695781 -0.0313746919747117
  0.4541053229966351  0.7528455014487577  0.0015361772958246
  0.4547050133430948  0.9199218013984602  0.0271886139209781
  0.5791842858198297  0.0039724140278210  0.0157564135124744
  0.5800354117035800  0.1706930701349355  0.0239467474099606
  0.5798437870081811  0.3370138509873234  0.0006290267694717
  0.5788136010646169  0.5029730766754138 -0.0183154296822250
  0.5794197725928454  0.6690894746811518 -0.0134810045386283
  0.5770704097996991  0.8368782125363631 -0.0167779295929415
  0.7040819697011657  0.0861676644634115  0.0274971121730078
  0.7041107143719610  0.2538091847828955  0.0139035236144992
  0.7041055599365698  0.4192625697927825 -0.0223154283477565
  0.7042045643190884  0.5859877869246085 -0.0189987545215729
  0.7029915923713830  0.7529710131010831  0.0025889868235269
  0.7037911606124428  0.9197245753286275 -0.0108013334497474
  0.8288610054593814  0.0020062982980737  0.0160483054529889
  0.8287604287370285  0.1689674529625008 -0.0031101818091131
  0.8289409742109475  0.3362543521480357  0.0043835176344806
  0.8293145627795012  0.5029055067771580 -0.0180568495953254
  0.8289468344483356  0.6700359502738746 -0.0124747078261850
  0.8292159702515641  0.8359234973826548  0.0082483002856221
  0.9545924410201808  0.0857190328154908  0.0032009730255907
  0.9538533295921938  0.2525162711196522  0.0011179294133781
  0.9539599997574145  0.4202533842314681 -0.0057449386454877
  0.9538248373617683  0.5860300545353707  0.0012311975477208
  0.9541767576950662  0.7531436897477622 -0.0066594557557041
  0.9535257064934416  0.9193530433452785 -0.0037544795099268
  0.0590498984238120  0.0231445350904556  0.7279821484796530
  0.1064396117050329  0.3451847354366523  0.3059173641676368
  0.5635329090488121  0.2604009683648681  0.7240605560265785
  0.6195229420874810  0.8749669640728128  0.2264491613358479
  0.7185036136916637  0.2634146162136046  0.7279566170748768
  0.9970977288898369  0.2099605618979536  0.7526598633935342
  0.5527058849327895  0.7616775815223696  0.3671458705981986
  0.4186778307203010  0.1984887528350018  0.7048929134993356
  0.9243690702602706  0.0723705778715705  0.7006429131969152
  0.7726285358098679  0.1613731870298150  0.2725559111395688
  0.4563078155593344  0.5980112454561278  0.7781161536764445
  0.1134343006698428  0.7586711854680874  0.5014390045805244
  0.8958079333822409  0.5417577761744903  0.6992506151109176
  0.2118555253496481  0.5917461403245473  0.2331316889367208
  0.4835023124573976  0.6298507996027757  0.2230735514790889
  0.7973688956630940  0.4074147611660769  0.6734782196938091
  0.6282800008461138  0.3602082290129322  0.2746492776279393
  0.6898215564730278  0.9192845910606247  0.7984534361532545
  0.9672319270232175  0.7819908855867675  0.4660060902799087
  0.1642105986507453  0.3826851696576847  0.5314532248364319
  0.3986586601287434  0.7832118306563947  0.7339076852002929
  0.1780162176770408  0.9354798344743432  0.6467649121045062
  0.6448561015503474  0.4121960051709707  0.7169063179403812
  0.0833097826954795  0.6641574431251647  0.2913029523677040
  0.7980942336501962  0.8263207345412141  0.7076009705135518
  0.5020547143346626  0.5880383048114908  0.4558168116908261
  0.7349815315909592  0.5626860201377960  0.6880744554632258
  0.3460548153565846  0.1800608267286362  0.2130686633811880
  0.3202951029447897  0.3193939903201254  0.5574127161680215
  0.4534569142679406  0.0596139986951839  0.5566532033950931
  0.4887807886802989  0.4197807168606142  0.7263564989616161
  0.4813260362138273  0.2667142332561657  0.2500096845366547
 -0.0543606117018334  0.9395096250717402  0.3095780950526001
  0.7323731283995231  0.8123769038570133  0.3564843754840586
  0.3378459705298060  0.4890005357405439  0.7366996448804134
  0.4117930433393266  0.7365075182338991  0.4073976743098288
  0.8676391197826692  0.0608300219851044  0.4683122628030283
  0.4831492720187848  0.2587706750457095  0.4976946306338173
  0.3626987241507492  0.3316480843883463  0.8064183913709225
  0.5188790157963448  0.7201300729806147  0.6085727297557915
  0.8167683353332131  0.3289115545071317  0.2175276968547907
  0.4883551611247879  0.0893131056502993  0.3060994218272947
  0.4510419783132310 -0.0546456571041732  0.7688424729805318
 -0.0431662283696052  0.7218165908465168  0.7080383633726344
  0.8218351945645355  0.6752777994269117  0.7865133162760485
  0.8988309262606882  0.2287596903363444  0.3846422381368958
 -0.1875463581775979  0.1496582013253279  0.8112043890940169
  0.5619263747887456 -0.0476339009670469  0.4169910858128001
  0.6458971253522202  0.8234966081442103  0.5544121021828861
  0.1805149292083402  0.4998177114090288  0.7314357239383361
  0.8001574791033697 -0.0025117585854881  0.6897882504759291
  0.6502976574178919  0.6949746553790018  0.2083709380454368
  0.4577800916193542  0.8980799571799017  0.2604735787608319
  0.3009601344581516  0.6547074344373285  0.7944291973293374
  0.5264796055959461  0.0966060885639652  0.7816669290756497
  0.3137433746942757  0.8490990767107672  0.3089106819674808
  0.7479510327372025  0.1565623553986498  0.5278134875619023
  0.3559837374379281  0.5376087834113950  0.3144747014376028
  0.7102428689548426  0.9793596293892961  0.4917504916504158
  0.5578938329143168  0.8236927986193165  0.7875556640898487
  0.6589755811533207  0.0377374229292204  0.2667323632485130
  0.1918257900461846  0.0751335439564876  0.7946054419127399
  0.9230055744664339  0.0977927978495627  0.2356690345120316
 -0.0279594674350178  0.6084817405635550  0.5076303794232688
  0.0635166612796648  0.8363559383065590  0.2688398516279692
  0.6828953621390688  0.4742128722992649  0.4908841174770759
  0.2219254347258625  0.2772590143463756  0.1965806149922943
  0.5856598234445269  0.5662659393001612  0.6713738253629273
  0.6729701917080410  0.6556119494780119  0.4746275715970755
  0.2803352832234151  0.1532436797214408  0.6529572956611103
 -0.1739595023310346  0.7128639021368286  0.5196746464246668
  0.0441523938947171  0.5793203160164621  0.7491994939068133
  0.3723451130920913  0.6276702089310348  0.5767404815274823
  0.0416071654902909 -0.0668407121869050  0.5109052205552282
  0.3563527700356514  0.1642303946800407  0.4469257463196092
  0.2397777201625790  0.8139269919076279  0.7758202858306487
  0.7410390594128531  0.4746176949500192  0.2560109268798946
  0.0552941446781332  0.1863987996671070  0.2905827013123872
  0.1310595471172054  0.2016363817797935  0.6545932711177295
  0.6743158305160907  0.0935495534302680  0.7437991271937601
  0.0356328842504029  0.4971667272327192  0.3228639910385281
  0.7865070453702606  0.6465268536673845  0.2782030622179578
  0.9389001075293043  0.3773890805710542  0.7453442299165052
  0.2249908809532101  0.3234768150506558  0.7456269975385940
  0.7733096852702874  0.3331211532877443  0.4482692336819826
  0.1800051702254899 -0.0987910225876568  0.4154506094534902
  0.3544569931304823  0.3437277316468808  0.3152863243626398
  0.6697582288052659  0.7151366507433484  0.7404492788136812
  0.5466378818673452  0.4210479395107858  0.4904714661272757
  0.6137521116072316  0.1944357264704011  0.2997664165265441
  0.5798784562059306  0.9646022747238726  0.6538282843343465
 -0.0332341001699718  0.3445315454541705  0.2426551119665756
  0.8700147876642955  0.2471354827407899  0.6250434252473263
  0.9108538050411961  0.4054495258269122  0.4798847083515811
  0.0245607116116302  0.2880201383134649  0.5088675646362186
  0.2084807401784751  0.2314119446648625  0.4365912470140547
  0.2946841748305944  0.8282948564147834  0.5553196030177215
  0.3114016368664629 -0.0179654968454738  0.7478996113186074
  0.5959075933366650  0.1170801236214665  0.5235536541666375
  0.2544089892668192  0.6855595141926930  0.4400651630484667
  0.8462630618104119  0.8895359212518030  0.4944906623578237
  0.1631293507912397  0.6757253400910553  0.7040907456498831
  0.8694390877073419  0.7997682520997593  0.2686164919695195
  0.8202564516440596  0.5434323067969375  0.4732700486556860
  0.0792823562437830  0.8233730512738388  0.7400697330066502
  0.6070643539681446  0.5361414495062826  0.2865877313893386
  0.4082118548238941  0.4518314803667243  0.5126495975771204
  0.3355835360551280  0.6904079017640947  0.2126363274864537
  0.9409183467785203  0.8971103099179356  0.7031445069526331
  0.3441116228434041  0.0136194581228555  0.2521635558543103
  0.1297773495642048  0.5814990436599942  0.4979618077321579
  0.2045720777327948 -0.0587951445008050  0.1889624442655631
  0.7993551477004013  0.9727964983173918  0.2705338343053181
  0.0774203102433941  0.0170278125472205  0.2812955449760400
  0.2096171775497454  0.1080882656459098  0.2605527927526885
  0.8851633079550217  0.4921313867074588  0.2598408105953789
  0.0357494493395378  0.4588065795043068  0.5826101840865376
  0.0830842493446568  0.3535032971355098  0.7682959892122767
  0.2278732242417145  0.4359684760916738  0.3069174046875084
  0.9390134858936271  0.6499875605460148  0.2724397102191304
  0.3087565697857213 -0.0000545174123296  0.4941511923588365
  0.1608961992376439  0.0713765233722427  0.4943700870524784
  0.1966379822361766  0.7636263134749741  0.2192063392967698
  0.6382456841163967  0.2869740996090355  0.5106528047846733
  0.0117250569039416  0.1129066366395216  0.5076375104820721
  0.4382647384158440  0.8871477265083304  0.5268645700295066
  0.2659303437035024  0.5131318236312574  0.5221765962971435
  0.4800764542710085  0.4434926942342144  0.2599595852046832
 

  0.00000000E+00  0.00000000E+00  0.00000000E+00
  0.00000000E+00  0.00000000E+00  0.00000000E+00
  0.00000000E+00  0.00000000E+00  0.00000000E+00
  0.00000000E+00  0.00000000E+00  0.00000000E+00
  0.00000000E+00  0.00000000E+00  0.00000000E+00
  0.00000000E+00  0.00000000E+00  0.00000000E+00
  0.00000000E+00  0.00000000E+00  0.00000000E+00
  0.00000000E+00  0.00000000E+00  0.00000000E+00
  0.00000000E+00  0.00000000E+00  0.00000000E+00
  0.00000000E+00  0.00000000E+00  0.00000000E+00
  0.00000000E+00  0.00000000E+00  0.00000000E+00
  0.00000000E+00  0.00000000E+00  0.00000000E+00
  0.00000000E+00  0.00000000E+00  0.00000000E+00
  0.00000000E+00  0.00000000E+00  0.00000000E+00
  0.00000000E+00  0.00000000E+00  0.00000000E+00
  0.00000000E+00  0.00000000E+00  0.00000000E+00
  0.00000000E+00  0.00000000E+00  0.00000000E+00
  0.00000000E+00  0.00000000E+00  0.00000000E+00
  0.00000000E+00  0.00000000E+00  0.00000000E+00
  0.00000000E+00  0.00000000E+00  0.00000000E+00
  0.00000000E+00  0.00000000E+00  0.00000000E+00
  0.00000000E+00  0.00000000E+00  0.00000000E+00
  0.00000000E+00  0.00000000E+00  0.00000000E+00
  0.00000000E+00  0.00000000E+00  0.00000000E+00
  0.00000000E+00  0.00000000E+00  0.00000000E+00
  0.00000000E+00  0.00000000E+00  0.00000000E+00
  0.00000000E+00  0.00000000E+00  0.00000000E+00
  0.00000000E+00  0.00000000E+00  0.00000000E+00
  0.00000000E+00  0.00000000E+00  0.00000000E+00
  0.00000000E+00  0.00000000E+00  0.00000000E+00
  0.00000000E+00  0.00000000E+00  0.00000000E+00
  0.00000000E+00  0.00000000E+00  0.00000000E+00
  0.00000000E+00  0.00000000E+00  0.00000000E+00
  0.00000000E+00  0.00000000E+00  0.00000000E+00
  0.00000000E+00  0.00000000E+00  0.00000000E+00
  0.00000000E+00  0.00000000E+00  0.00000000E+00
  0.00000000E+00  0.00000000E+00  0.00000000E+00
  0.00000000E+00  0.00000000E+00  0.00000000E+00
  0.00000000E+00  0.00000000E+00  0.00000000E+00
  0.00000000E+00  0.00000000E+00  0.00000000E+00
  0.00000000E+00  0.00000000E+00  0.00000000E+00
  0.00000000E+00  0.00000000E+00  0.00000000E+00
  0.00000000E+00  0.00000000E+00  0.00000000E+00
  0.00000000E+00  0.00000000E+00  0.00000000E+00
  0.00000000E+00  0.00000000E+00  0.00000000E+00
  0.00000000E+00  0.00000000E+00  0.00000000E+00
  0.00000000E+00  0.00000000E+00  0.00000000E+00
  0.00000000E+00  0.00000000E+00  0.00000000E+00
  0.00000000E+00  0.00000000E+00  0.00000000E+00
  0.00000000E+00  0.00000000E+00  0.00000000E+00
  0.00000000E+00  0.00000000E+00  0.00000000E+00
  0.00000000E+00  0.00000000E+00  0.00000000E+00
  0.00000000E+00  0.00000000E+00  0.00000000E+00
  0.00000000E+00  0.00000000E+00  0.00000000E+00
  0.00000000E+00  0.00000000E+00  0.00000000E+00
  0.00000000E+00  0.00000000E+00  0.00000000E+00
  0.00000000E+00  0.00000000E+00  0.00000000E+00
  0.00000000E+00  0.00000000E+00  0.00000000E+00
  0.00000000E+00  0.00000000E+00  0.00000000E+00
  0.00000000E+00  0.00000000E+00  0.00000000E+00
  0.00000000E+00  0.00000000E+00  0.00000000E+00
  0.00000000E+00  0.00000000E+00  0.00000000E+00
  0.00000000E+00  0.00000000E+00  0.00000000E+00
  0.00000000E+00  0.00000000E+00  0.00000000E+00
  0.00000000E+00  0.00000000E+00  0.00000000E+00
  0.00000000E+00  0.00000000E+00  0.00000000E+00
  0.00000000E+00  0.00000000E+00  0.00000000E+00
  0.00000000E+00  0.00000000E+00  0.00000000E+00
  0.00000000E+00  0.00000000E+00  0.00000000E+00
  0.00000000E+00  0.00000000E+00  0.00000000E+00
  0.00000000E+00  0.00000000E+00  0.00000000E+00
  0.00000000E+00  0.00000000E+00  0.00000000E+00
  0.00000000E+00  0.00000000E+00  0.00000000E+00
  0.00000000E+00  0.00000000E+00  0.00000000E+00
  0.00000000E+00  0.00000000E+00  0.00000000E+00
  0.00000000E+00  0.00000000E+00  0.00000000E+00
  0.00000000E+00  0.00000000E+00  0.00000000E+00
  0.00000000E+00  0.00000000E+00  0.00000000E+00
  0.00000000E+00  0.00000000E+00  0.00000000E+00
  0.00000000E+00  0.00000000E+00  0.00000000E+00
  0.00000000E+00  0.00000000E+00  0.00000000E+00
  0.00000000E+00  0.00000000E+00  0.00000000E+00
  0.00000000E+00  0.00000000E+00  0.00000000E+00
  0.00000000E+00  0.00000000E+00  0.00000000E+00
  0.00000000E+00  0.00000000E+00  0.00000000E+00
  0.00000000E+00  0.00000000E+00  0.00000000E+00
  0.00000000E+00  0.00000000E+00  0.00000000E+00
  0.00000000E+00  0.00000000E+00  0.00000000E+00
  0.00000000E+00  0.00000000E+00  0.00000000E+00
  0.00000000E+00  0.00000000E+00  0.00000000E+00
  0.00000000E+00  0.00000000E+00  0.00000000E+00
  0.00000000E+00  0.00000000E+00  0.00000000E+00
  0.00000000E+00  0.00000000E+00  0.00000000E+00
  0.00000000E+00  0.00000000E+00  0.00000000E+00
  0.00000000E+00  0.00000000E+00  0.00000000E+00
  0.00000000E+00  0.00000000E+00  0.00000000E+00
  0.10000000E+00  0.10000000E+00  0.00000000E+00
  0.10000000E+00  0.10000000E+00  0.00000000E+00
  0.10000000E+00  0.10000000E+00  0.00000000E+00
  0.10000000E+00  0.10000000E+00  0.00000000E+00
  0.10000000E+00  0.10000000E+00  0.00000000E+00
  0.10000000E+00  0.10000000E+00  0.00000000E+00
  0.10000000E+00  0.10000000E+00  0.00000000E+00
  0.10000000E+00  0.10000000E+00  0.00000000E+00
  0.10000000E+00  0.10000000E+00  0.00000000E+00
  0.10000000E+00  0.10000000E+00  0.00000000E+00
  0.10000000E+00  0.10000000E+00  0.00000000E+00
  0.10000000E+00  0.10000000E+00  0.00000000E+00
  0.10000000E+00  0.10000000E+00  0.00000000E+00
  0.10000000E+00  0.10000000E+00  0.00000000E+00
  0.10000000E+00  0.10000000E+00  0.00000000E+00
  0.10000000E+00  0.10000000E+00  0.00000000E+00
  0.10000000E+00  0.10000000E+00  0.00000000E+00
  0.10000000E+00  0.10000000E+00  0.00000000E+00
  0.10000000E+00  0.10000000E+00  0.00000000E+00
  0.10000000E+00  0.10000000E+00  0.00000000E+00
  0.10000000E+00  0.10000000E+00  0.00000000E+00
  0.10000000E+00  0.10000000E+00  0.00000000E+00
  0.10000000E+00  0.10000000E+00  0.00000000E+00
  0.10000000E+00  0.10000000E+00  0.00000000E+00
  0.10000000E+00  0.10000000E+00  0.00000000E+00
  0.10000000E+00  0.10000000E+00  0.00000000E+00
  0.10000000E+00  0.10000000E+00  0.00000000E+00
  0.10000000E+00  0.10000000E+00  0.00000000E+00
  0.10000000E+00  0.10000000E+00  0.00000000E+00
  0.10000000E+00  0.10000000E+00  0.00000000E+00
  0.10000000E+00  0.10000000E+00  0.00000000E+00
  0.10000000E+00  0.10000000E+00  0.00000000E+00
  0.10000000E+00  0.10000000E+00  0.00000000E+00
  0.10000000E+00  0.10000000E+00  0.00000000E+00
  0.10000000E+00  0.10000000E+00  0.00000000E+00
  0.10000000E+00  0.10000000E+00  0.00000000E+00
  0.10000000E+00  0.10000000E+00  0.00000000E+00
  0.10000000E+00  0.10000000E+00  0.00000000E+00
  0.10000000E+00  0.10000000E+00  0.00000000E+00
  0.10000000E+00  0.10000000E+00  0.00000000E+00
  0.10000000E+00  0.10000000E+00  0.00000000E+00
  0.10000000E+00  0.10000000E+00  0.00000000E+00
  0.10000000E+00  0.10000000E+00  0.00000000E+00
  0.10000000E+00  0.10000000E+00  0.00000000E+00
  0.10000000E+00  0.10000000E+00  0.00000000E+00
  0.10000000E+00  0.10000000E+00  0.00000000E+00
  0.10000000E+00  0.10000000E+00  0.00000000E+00
  0.10000000E+00  0.10000000E+00  0.00000000E+00
  0.10000000E+00  0.10000000E+00  0.00000000E+00
  0.10000000E+00  0.10000000E+00  0.00000000E+00
  0.10000000E+00  0.10000000E+00  0.00000000E+00
  0.10000000E+00  0.10000000E+00  0.00000000E+00
  0.10000000E+00  0.10000000E+00  0.00000000E+00
  0.10000000E+00  0.10000000E+00  0.00000000E+00
  0.10000000E+00  0.10000000E+00  0.00000000E+00
  0.10000000E+00  0.10000000E+00  0.00000000E+00
  0.10000000E+00  0.10000000E+00  0.00000000E+00
  0.10000000E+00  0.10000000E+00  0.00000000E+00
  0.10000000E+00  0.10000000E+00  0.00000000E+00
  0.10000000E+00  0.10000000E+00  0.00000000E+00
  0.10000000E+00  0.10000000E+00  0.00000000E+00
  0.10000000E+00  0.10000000E+00  0.00000000E+00
  0.10000000E+00  0.10000000E+00  0.00000000E+00
  0.10000000E+00  0.10000000E+00  0.00000000E+00
  0.10000000E+00  0.10000000E+00  0.00000000E+00
  0.10000000E+00  0.10000000E+00  0.00000000E+00
  0.10000000E+00  0.10000000E+00  0.00000000E+00
  0.10000000E+00  0.10000000E+00  0.00000000E+00
  0.10000000E+00  0.10000000E+00  0.00000000E+00
  0.10000000E+00  0.10000000E+00  0.00000000E+00
  0.10000000E+00  0.10000000E+00  0.00000000E+00
  0.10000000E+00  0.10000000E+00  0.00000000E+00
  0.10000000E+00  0.10000000E+00  0.00000000E+00
  0.10000000E+00  0.10000000E+00  0.00000000E+00
  0.10000000E+00  0.10000000E+00  0.00000000E+00
  0.10000000E+00  0.10000000E+00  0.00000000E+00
  0.10000000E+00  0.10000000E+00  0.00000000E+00
  0.10000000E+00  0.10000000E+00  0.00000000E+00
  0.10000000E+00  0.10000000E+00  0.00000000E+00
  0.10000000E+00  0.10000000E+00  0.00000000E+00
  0.10000000E+00  0.10000000E+00  0.00000000E+00
  0.10000000E+00  0.10000000E+00  0.00000000E+00
  0.10000000E+00  0.10000000E+00  0.00000000E+00
  0.10000000E+00  0.10000000E+00  0.00000000E+00
  0.10000000E+00  0.10000000E+00  0.00000000E+00
  0.10000000E+00  0.10000000E+00  0.00000000E+00
  0.10000000E+00  0.10000000E+00  0.00000000E+00
  0.10000000E+00  0.10000000E+00  0.00000000E+00
  0.10000000E+00  0.10000000E+00  0.00000000E+00
  0.10000000E+00  0.10000000E+00  0.00000000E+00
  0.10000000E+00  0.10000000E+00  0.00000000E+00
  0.10000000E+00  0.10000000E+00  0.00000000E+00
  0.10000000E+00  0.10000000E+00  0.00000000E+00
  0.10000000E+00  0.10000000E+00  0.00000000E+00
  0.10000000E+00  0.10000000E+00  0.00000000E+00
  0.10000000E+00  0.10000000E+00  0.00000000E+00
  0.10000000E+00  0.10000000E+00  0.00000000E+00
  0.10000000E+00  0.10000000E+00  0.00000000E+00
  0.10000000E+00  0.10000000E+00  0.00000000E+00
  0.10000000E+00  0.10000000E+00  0.00000000E+00
  0.10000000E+00  0.10000000E+00  0.00000000E+00
  0.10000000E+00  0.10000000E+00  0.00000000E+00
  0.10000000E+00  0.10000000E+00  0.00000000E+00
  0.10000000E+00  0.10000000E+00  0.00000000E+00
  0.10000000E+00  0.10000000E+00  0.00000000E+00
  0.10000000E+00  0.10000000E+00  0.00000000E+00
  0.10000000E+00  0.10000000E+00  0.00000000E+00
  0.10000000E+00  0.10000000E+00  0.00000000E+00
  0.10000000E+00  0.10000000E+00  0.00000000E+00
  0.10000000E+00  0.10000000E+00  0.00000000E+00
  0.10000000E+00  0.10000000E+00  0.00000000E+00
  0.10000000E+00  0.10000000E+00  0.00000000E+00
  0.10000000E+00  0.10000000E+00  0.00000000E+00
  0.10000000E+00  0.10000000E+00  0.00000000E+00
  0.10000000E+00  0.10000000E+00  0.00000000E+00
  0.10000000E+00  0.10000000E+00  0.00000000E+00
  0.10000000E+00  0.10000000E+00  0.00000000E+00
  0.10000000E+00  0.10000000E+00  0.00000000E+00
  0.10000000E+00  0.10000000E+00  0.00000000E+00
  0.10000000E+00  0.10000000E+00  0.00000000E+00
  0.10000000E+00  0.10000000E+00  0.00000000E+00
  0.10000000E+00  0.10000000E+00  0.00000000E+00
  0.10000000E+00  0.10000000E+00  0.00000000E+00
  0.10000000E+00  0.10000000E+00  0.00000000E+00
  0.10000000E+00  0.10000000E+00  0.00000000E+00
  0.10000000E+00  0.10000000E+00  0.00000000E+00
  0.10000000E+00  0.10000000E+00  0.00000000E+00
  0.10000000E+00  0.10000000E+00  0.00000000E+00
