BoronNitride_undoped_flowing            
   1.0000000000000000     
    17.3520000000000003    0.0000000000000000    0.0000000000000000
     0.0000000000000000   15.0272728064999992    0.0000000000000000
     0.0000000000000000    0.0000000000000000   10.6393173196999999
   B    N    Al
    48    48   128
Direct
  0.6825789577574868  0.7832684845491826  0.9840966053177832
  0.6765543952304993  0.9527141133859631  0.9440808288009093
  0.6866320614742318  0.1156954426300437  0.0136397094185113
  0.6857734382921529  0.2841780523360805  0.0447433069138581
  0.6841912807861771  0.4445042182156823  0.9945693781072704
  0.6808351908952269  0.6123605352440423  0.0337289863618458
  0.8067441452089803  0.8630042753180560  0.9628282409964777
  0.8085063625683763  0.0260536447042141  0.9801567102299024
  0.8140099966205405  0.1919758250788196  0.0072114474301382
  0.8095578470427209  0.3577995355615989  0.0559537012551108
  0.8039620350576893  0.5286216482166362  0.0002879269630138
  0.8103602560164888  0.6905987759589559  0.9779769450586883
  0.9366579544948836  0.7698183795585974  0.9820806430856498
  0.9384116743244089  0.9470747897232780  0.9832305106614230
  0.9337838702270559  0.1002136181483799  0.0416012701951611
  0.9388845450195749  0.2652781591322282  0.0406947912374267
  0.9310424633311331  0.4371755272965058  0.0147928209566296
  0.9325882411671667  0.6082696695030584  0.0141258183512888
  0.0612844522882556  0.8579652289082966  0.9732479270072582
  0.0605577719707082  0.0311254053634397  0.9823938382133950
  0.0587452531054819  0.1905708110537057  0.9783049183113423
  0.0591763189644498  0.3565872691859173  0.0023384287869405
  0.0537190881488452  0.5290756797511481  0.0433735939022690
  0.0599059223215949  0.6931665436114196  0.0170822208191971
  0.1832985585667036  0.7795300840845685  0.9977239850370055
  0.1867777113235599  0.9510315569919473  0.9794715304291900
  0.1867280373955801  0.1182203819605305  0.9715270537930085
  0.1806909493964166  0.2787140346466825  0.9467382731758011
  0.1792434606940383  0.4509180156191890  0.9960097401639396
  0.1885396615150333  0.6094913576816618  0.0557552397250799
  0.3024892299919167  0.8629092319417524  0.0126146410180965
  0.3074758339242882  0.0340363315001935  0.9857895346458120
  0.3079719857871016  0.1997607512641400  0.9860844139562346
  0.3068341811308127  0.3675295311916026  0.9707086515963638
  0.3040996653948373  0.5225096105225924  0.9838060018569147
  0.3017021247401778  0.6943509792935726  0.9762923347173151
  0.4233481280178901  0.7813324374762864  0.9855130272412238
  0.4270327650873771  0.9457686521113288  0.9726130307190071
  0.4364628679269418  0.1144193491065268  0.9871786204019245
  0.4331309831310294  0.2831512808498873  0.9815731380117295
  0.4353961099398482  0.4483136376091444  0.9625636189033069
  0.4232694807294720  0.6118746115016722  0.0204048365796040
  0.5537633546626631  0.8647695176825135  0.0032473905432858
  0.5576251065066584  0.0346764941354759  0.9897466892045773
  0.5612482198060796  0.2014990595100936  0.0190001678303647
  0.5621550141958379  0.3614626201531355  0.9998380854731320
  0.5540473459289180  0.5290895407922400  0.0340608264733343
  0.5569581008017130  0.6895154488949436  0.9830470744003365
  0.7679651823607871  0.7761932956733479  0.9924103476152381
  0.7618076918257082  0.9480143673831789  0.9722905070430538
  0.7675503816902230  0.1126007490756888  0.0200768557585852
  0.7712366555899762  0.2704652399370885  0.0558985453437184
  0.7646032179951053  0.4489384925081558  0.0510965636306582
  0.7642214579599581  0.6110752053917894  0.0072873221585830
  0.9000762839822434  0.8586787123724934  0.9749878041988885
  0.8900795412839286  0.0193610168380604  0.0087622384878521
  0.8924216797123395  0.1828261386426284  0.0366293743976738
  0.8936079333854747  0.3531439839348671  0.0435577858776208
  0.8921083396169064  0.5242701885231166  0.0077999170317895
  0.8920159884104980  0.6894253633556889  0.0120723604159008
  0.0157992629981799  0.7733208658211834  0.0244093078452296
  0.0227543585169336  0.9503137937785753  0.9911072120914955
  0.0160966726244622  0.1065240060062487  0.0028724218124084
  0.0149028036837266  0.2704281681264030  0.9840281286802816
  0.0145910145199618  0.4391445480952548  0.0074491739915669
  0.0167353973281066  0.6115924778492722  0.9838158280405359
  0.1422662574466638  0.8658175392519761  0.0186912576622707
  0.1450816014856224  0.0330603163268916  0.9319054133615835
  0.1417212568857938  0.1963048500349448  0.9792749119782364
  0.1421132955811059  0.3627828740030955  0.9670755167212497
  0.1389586127272422  0.5303397723733867  0.0394492160358815
  0.1452998284206281  0.6976645830924824  0.0251016524277539
  0.2636416579230053  0.7791777849539332  0.9951279349064073
  0.2678861142788254  0.9524729037409810  0.0052200795259471
  0.2682649042827827  0.1187894471580037  0.9962302511221077
  0.2650789953455776  0.2846402240092731  0.9845098050694977
  0.2616341933705531  0.4453339790406148  0.9657227843375207
  0.2618752288673215  0.6051435704191703  0.9657930869654009
  0.3820180915202031  0.8603639920587801  0.9736846198301323
  0.3921827388147013  0.0286575787456533  0.9934102264081187
  0.3932234136185180  0.1979671852802614  0.9768597719588444
  0.3910048524631038  0.3612862101868442  0.0074545511481598
  0.3861976177617285  0.5252984967255603  0.9982540149567046
  0.3825430078134643  0.6943036926559442  0.0070470284677771
  0.5095823446637042  0.7774372312878995  0.0117224970371254
  0.5091298257859349  0.9488736505679025  0.9898979861484060
  0.5211059393563297  0.1192589563521799  0.9852880272512368
  0.5174664976216186  0.2812448745166911  0.0373058604654744
  0.5133891298000893  0.4441472622690222  0.0331074996516477
  0.5105498130164736  0.6140213106678793  0.0275701204238458
  0.6426207821985880  0.8668636884252481  0.0212303350987651
  0.6393271007914134  0.0350732781078998  0.9927733358976377
  0.6431204151734504  0.2004152580908029  0.0343689639267314
  0.6434961505019242  0.3638967835530120  0.0274939800011028
  0.6384965418913904  0.5263195032846744  0.0177901969035526
  0.6390492704462454  0.6990679811597049  0.0174933851192304
  0.2102580763313504  0.1783617864128852  0.7227821287495959
  0.2151031419755834  0.4515037221869918  0.2236197683488411
  0.6718572181136918  0.2810084720370909  0.6878532071895251
  0.6565981648862245  0.9319289019160556  0.1901540568551909
  0.7927713797837976  0.3394533317007786  0.7854308782050659
  0.1341644480077723  0.3101068063624711  0.6747286820505239
  0.6363247255006768  0.8338836042433326  0.4146463469306101
  0.5170053285923353  0.2153189206120815  0.6277444884048482
  0.0541024621525599  0.1634781688806676  0.7162345082658145
  0.8952237205952478  0.1513282981224024  0.3159995335766909
  0.5937101898201721  0.6113595067279803  0.8177449525741992
  0.2041010290759308  0.8752681297350673  0.4863899330875808
  0.0302342564339243  0.6506923645325768  0.7790102945968748
  0.2634165387091193  0.6240599678820029  0.2235601701230458
  0.5295742167370868  0.8053890586846278  0.2122601182476692
  0.9530253050652973  0.5248279567024791  0.6849258414922845
  0.7570153671675657  0.4229918416068846  0.2405813355545025
  0.7980776981005606  0.0264045919083175  0.7142154225846865
  0.0724557639804248  0.8467723556452061  0.3688707142407662
  0.2586008258391323  0.5082961286054444  0.4820377328054335
  0.5362076920756266  0.7699112325596713  0.8315984356592439
  0.2499328645591618  0.9125535737998908  0.7089368848129960
  0.8091288533832006  0.5223952080619740  0.7584702738572637
  0.1273198578650722  0.7061311435117050  0.2327118675269880
  0.8412771571521184  0.8536750887279801  0.7193124051722929
  0.6566959340620498  0.6637283614986532  0.4228562717671085
  0.8866001946841054  0.6787840081968283  0.7223809369469465
  0.5150715639036662  0.3776353888462132  0.1923523596924699
  0.4241430097092780  0.5263751184335054  0.5624119126381475
  0.5096946812950724  0.0749680142167319  0.4686913145320776
  0.6439614609987609  0.4460834576310704  0.7635018901866412
  0.6426656617534248  0.3607508326244243  0.3479918977161182
  0.0299625740126962  0.0035872700034088  0.2715372568447879
  0.7857684621095700  0.9232469134010081  0.3409769879748172
  0.4896637326173330  0.4816903456806478  0.7711365222695583
  0.4054034844626483  0.8810665272044834  0.3174380009380215
  0.9878313106390407  0.1101505228084829  0.5097709700623698
  0.5616630449505473  0.3715549257674563  0.5849619411685195
  0.5396873755994587  0.3109919901953568  0.8121551112467585
  0.6145265279077163  0.7310663752046763  0.6135661197601628
  0.9016601008236470  0.3213949421264646  0.3809906614032389
  0.6148603418517905  0.1432648007529383  0.2414626367271086
  0.5319284724126481  0.9415440751977017  0.7951723645844144
  0.0485271327397878  0.9412321966896544  0.5872699748297515
  0.9912366542198853  0.8555525164745059  0.7878323122641667
  0.0285793564299337  0.2953766236387316  0.5194797452254974
  0.8923805766832291  0.1992480590782627  0.7928642594574870
  0.6400849102830575  0.0063849583871706  0.3960452219302421
  0.7242258610877351  0.9234616255933835  0.5685447787832855
  0.3379528186896980  0.5761040591969656  0.7166581047792218
  0.9411345618026493  0.0255745613466670  0.7262787522058832
  0.7044737393456405  0.7472316954807846  0.2263801241160623
  0.5335956529688953  0.0012155922798535  0.2641580570379754
  0.4564588274052594  0.6918425487425687  0.6581676036946978
  0.6247059067597281  0.1363733960189669  0.7800497595846904
  0.3833425214561140  0.0535867034476818  0.2904413653295316
  0.8486576010840021  0.1871779531432990  0.5580679207524770
  0.4983730356735702  0.6030013613999191  0.2681808947222445
  0.7688011321225739  0.0741370831434197  0.4506894062275452
  0.6758997927785249  0.8743582970225763  0.7861144444654332
  0.7395980037946427  0.0663417142462579  0.2002647001499004
  0.3220622719872054  0.0585685772820880  0.7507690102733202
  0.0396483336492266  0.1925624835155692  0.2843578960962308
  0.0826754655119933  0.7714029411338270  0.5877435873221440
  0.1529503923996199  0.9215487764812461  0.1896381936327508
  0.8174054887501108  0.5723843707333788  0.5251128813091811
  0.3710699977270013  0.3476530999883851  0.2239866178871275
  0.7034643312287150  0.6075232873073960  0.6338682439077553
  0.7717018226722723  0.7746108604906538  0.5283511756293489
  0.3934354764480074  0.2119434381257042  0.7624778875042377
  0.9284459373647239  0.7994781541730633  0.5361059867879356
  0.1991790823968594  0.6066121239861613  0.7894715015608768
  0.4994158885545028  0.7580790753697919  0.4225905883979250
  0.1333016236675991  0.0423348596933661  0.4409898205192305
  0.5358920743326051  0.2547808854710840  0.3997635629364075
  0.4125004345966654  0.8542046976570407  0.7440950266347738
  0.8905126264871158  0.4826220338364849  0.3499557669075486
  0.1703200707539640  0.2902834115347076  0.2398669938991795
  0.2922332375643600  0.2959295387378911  0.6438555873525111
  0.7606801874189203  0.1730869380434956  0.8151831046558492
  0.1110968915446388  0.5520602045785608  0.3300645694466097
  0.8443712974689747  0.7199716856176450  0.3338421431339696
  0.0895955038377219  0.4760732507689894  0.7655423361920979
  0.3856378321000926  0.3797913381369747  0.7806804406382059
  0.8730816088551879  0.3952518548050736  0.5748953873656213
  0.2843192881202893  0.0912634140953644  0.5285396309026916
  0.4887976146660779  0.4542120513482445  0.3788306808017028
  0.7436481931954576  0.7316115536395407  0.7720620472949206
  0.7000598100419355  0.4748607758691122  0.4861407239648462
  0.7500157660344892  0.2355197656115080  0.2315182127846253
  0.6042505625274357  0.0237375706208798  0.6366965742910685
  0.0302548805520442  0.3582258324954828  0.2829802276355172
  0.9780053046019958  0.3682895312480476  0.7642364705654632
  0.0168070790073404  0.4647327123683948  0.5059840695477013
  0.1465387839494637  0.3994303386068507  0.4574854987131354
  0.4068183293340049  0.3510726330681016  0.5215261630953862
  0.3551802476074573  0.9717325199614785  0.5169429946776108
  0.4655717678291426  0.0694804465335869  0.7063014768357401
  0.6444725265056611  0.1895364983573427  0.4799011411359179
  0.3561632667672242  0.8137558045998415  0.5170814697090321
  0.9121153291794309  0.9767464438764539  0.4675616760163402
  0.2778912591489928  0.7361413266404170  0.7607028624090800
  0.9253541307872041  0.8543814852885747  0.2420917163107114
  0.9633382076809461  0.6181403945648692  0.4747123587205970
  0.1308044228108387  0.7929181203035981  0.8075976384971283
  0.7642956773488787  0.5787492248493949  0.2834162451738558
  0.5494408521517432  0.5887679208581197  0.5118766709640297
  0.3896972301262276  0.6998840811597276  0.1908371879678249
  0.1311270818146800  0.0232676481965537  0.7522820778795445
  0.4627620952459472  0.1978723836018230  0.2320098473563939
  0.2071995687822269  0.6967283843340292  0.4994549628021758
  0.2494838258919371  0.9839056988912351  0.3010434469117926
  0.8934776204578705  0.0200606930223106  0.2015657900602830
  0.1632045600040807  0.0978823367553283  0.2172965585710068
  0.2955547786739708  0.1918687055543732  0.2691428296800356
  0.0025551727579678  0.5229198105700513  0.2168835145963827
  0.1035926243782051  0.5831223581388015  0.5559092950199118
  0.2243137147635994  0.4371597318520622  0.7164978226810573
  0.3755304673589519  0.5059849227478788  0.1958838780309418
  0.9939993094211793  0.7156982383544694  0.2982200763775931
  0.3979186572116437  0.1695848120411838  0.4788876287843361
  0.2717623484456808  0.3223561562112607  0.3998893392371216
  0.2749610594528967  0.8137353972211981  0.2672505342269488
  0.7542490380131346  0.3109577065464522  0.4767796458884147
  0.1628742168567329  0.2026578178563460  0.4539443257777156
  0.5152183401737965  0.9072232270331192  0.5247113466539307
  0.3484189714200882  0.6429846763303618  0.4298253187968242
  0.6167141067062503  0.5137703718873884  0.2799173765274925

  0.13146562E-01  0.19093011E-02  0.10515758E-01
  0.27927246E-02 -0.47214289E-02 -0.14575678E-02
  0.92889876E-02 -0.44748976E-02 -0.89414890E-02
  0.43049760E-02  0.28713473E-02 -0.10269036E-01
  0.97178070E-02 -0.48350620E-02 -0.87363475E-02
  0.45141888E-03 -0.27310387E-02  0.80081781E-02
  0.65962794E-02 -0.12006375E-01 -0.66087504E-02
  0.68015874E-02 -0.12963720E-02 -0.63045009E-02
 -0.11227503E-02 -0.51096301E-02  0.80271780E-02
 -0.22567226E-02 -0.94872211E-02  0.42111414E-02
  0.61452457E-02 -0.73286921E-02  0.15444837E-01
 -0.57598613E-02 -0.17942339E-01 -0.11417040E-01
  0.10129784E-01  0.19765545E-03 -0.52022017E-02
  0.26217668E-02 -0.10217835E-01  0.11175543E-01
  0.32404420E-02 -0.50087607E-03  0.10878030E-01
  0.53565282E-02 -0.54660950E-02  0.54807301E-02
 -0.10227793E-01 -0.73094295E-02 -0.65327816E-02
  0.95707704E-02 -0.14741038E-01  0.20567937E-01
 -0.65415991E-02 -0.47247138E-02 -0.50937144E-02
  0.95919118E-03  0.25522224E-04  0.20957585E-01
  0.89602327E-02 -0.10818096E-01  0.11441324E-01
  0.68475444E-02 -0.35585797E-02  0.94473851E-02
 -0.18000215E-02 -0.16597595E-01 -0.12012886E-02
 -0.10312466E-02 -0.78041288E-02 -0.18457529E-01
 -0.96895570E-02 -0.26822593E-02  0.66496363E-02
 -0.30651107E-03 -0.96858066E-02 -0.43014205E-02
 -0.72479838E-02 -0.93029014E-02 -0.10112967E-01
  0.69176624E-02  0.79896401E-03  0.89107709E-02
 -0.28239343E-02  0.95199294E-02 -0.68051953E-02
 -0.81887279E-02  0.69022402E-02 -0.52012699E-02
  0.60308236E-02 -0.25448427E-03 -0.26483645E-02
  0.14092367E-01  0.59120579E-02  0.40266881E-02
 -0.97424759E-02  0.66152093E-02  0.94709735E-02
 -0.26350905E-02  0.15796802E-02 -0.73286731E-02
  0.78770491E-04  0.43558610E-02 -0.61069351E-02
  0.13686954E-01 -0.29638272E-02 -0.37865998E-02
  0.74302293E-02 -0.12238018E-01 -0.13250091E-01
 -0.54636295E-02  0.22380881E-02  0.13240834E-01
  0.49367228E-02  0.16672773E-02  0.13710793E-01
  0.70000530E-03 -0.87798422E-02  0.86644677E-02
  0.13427435E-01  0.57807830E-03  0.41146253E-02
 -0.31148579E-02  0.17352573E-02  0.35369581E-02
 -0.27323354E-02  0.10284168E-01  0.16227243E-01
  0.28178590E-02  0.82762024E-02 -0.40297957E-02
  0.68175915E-02 -0.19014254E-01 -0.23012783E-02
 -0.48991576E-02  0.18762111E-02  0.13449510E-02
 -0.58789572E-02  0.41767883E-02 -0.40860139E-02
 -0.25502140E-02  0.48477181E-02 -0.38666238E-02
  0.20047607E-02 -0.96465606E-02 -0.12628499E-01
  0.43655587E-02 -0.24348451E-02  0.19315550E-01
 -0.53942843E-02 -0.75292669E-02  0.10117403E-01
 -0.31199140E-02 -0.16643665E-01 -0.43023306E-02
 -0.55334876E-03 -0.11231842E-01 -0.72383412E-02
 -0.83367009E-02 -0.15117666E-01 -0.11178976E-01
  0.91763923E-02  0.59409335E-03  0.45119168E-02
 -0.77727508E-02 -0.26959649E-02 -0.75879104E-03
 -0.10683882E-01  0.84538120E-02  0.77418883E-02
 -0.19242426E-02 -0.24177426E-03  0.96348502E-03
  0.17390614E-02 -0.10551853E-01  0.61354552E-02
  0.56844808E-02 -0.57386923E-02 -0.44662795E-02
  0.25136995E-02 -0.16440216E-02 -0.10112824E-01
 -0.26220996E-02  0.12392106E-01 -0.27516539E-02
 -0.22257486E-03  0.11886812E-02  0.33511232E-02
 -0.84790664E-02 -0.80083413E-02 -0.18305591E-02
 -0.15055863E-01 -0.36173947E-02 -0.24186498E-01
  0.68948758E-02 -0.80156795E-02  0.84245923E-02
  0.60629372E-03  0.61989114E-02 -0.12673256E-01
 -0.11788224E-01 -0.27287735E-02  0.79131993E-02
  0.61046304E-02 -0.27870825E-02 -0.12014989E-02
 -0.27683944E-02  0.57561486E-02  0.53619287E-02
  0.64290805E-02  0.20093760E-02 -0.16438481E-02
 -0.45365763E-02  0.20561891E-02 -0.13968559E-01
 -0.12194962E-01  0.57962426E-02 -0.63756231E-02
  0.82538474E-03 -0.52626480E-02  0.21713896E-02
 -0.52760300E-02  0.27788082E-02  0.40999321E-02
  0.58695941E-02  0.11610772E-01 -0.44359416E-02
 -0.31018060E-03  0.45992522E-02 -0.47494111E-04
  0.56812794E-02  0.55524044E-02  0.17595521E-01
 -0.30709373E-02  0.96271808E-02 -0.60714827E-02
  0.92529279E-02  0.33580648E-02  0.97912457E-02
  0.53054584E-02  0.10440453E-01  0.10554080E-01
 -0.58505587E-02 -0.38510430E-02 -0.22403724E-03
 -0.80003550E-02  0.72868724E-02  0.37492967E-03
  0.39899589E-02  0.22373442E-02  0.16414261E-01
 -0.63323411E-02  0.65542611E-02 -0.56265688E-02
 -0.43717406E-02 -0.54606639E-03 -0.57253114E-02
  0.23754020E-02  0.30180884E-02  0.76029620E-02
 -0.55581642E-02 -0.62368611E-02 -0.12027902E-01
 -0.12685377E-02  0.98511649E-02  0.57612848E-02
  0.94135948E-02 -0.63983427E-02  0.43144403E-02
 -0.92156256E-02  0.65325815E-02  0.25116800E-02
  0.40275336E-02 -0.22340764E-03  0.45258308E-02
  0.19961689E-01 -0.31992221E-02 -0.11070182E-01
  0.38866153E-02 -0.92706430E-03 -0.48242713E-02
 -0.71758482E-02 -0.95400925E-02  0.22701429E-02
 -0.58139982E-02  0.19523846E-03  0.13191580E-02
  0.10516985E-02 -0.50980735E-02 -0.16096394E-02
 -0.61988292E-02 -0.17132417E-02 -0.76701014E-03
  0.27285496E-02 -0.61666612E-02  0.10150897E-02
  0.81684091E-03  0.56135445E-02 -0.46068660E-02
 -0.24646105E-02 -0.27645663E-02  0.53375078E-02
 -0.57554670E-02 -0.10260118E-01  0.66568338E-02
  0.59628412E-02  0.14172824E-02  0.55564095E-03
 -0.87303632E-03 -0.11049219E-01 -0.37046305E-02
 -0.59485894E-02 -0.42840724E-02  0.78778622E-02
 -0.63776106E-02  0.56458460E-02  0.57722539E-02
  0.21665779E-02 -0.69441575E-02 -0.36386753E-03
 -0.21715566E-02  0.66722653E-02 -0.73458996E-02
  0.13838338E-01  0.56825048E-02  0.16718322E-02
  0.91320683E-02  0.60497078E-02 -0.11022001E-01
 -0.96964119E-02 -0.23672157E-02  0.91645739E-02
 -0.64530111E-02  0.24872433E-02 -0.27863204E-02
  0.13936410E-02  0.42149208E-02 -0.22268487E-02
 -0.57658933E-02  0.69087978E-02  0.10874983E-02
 -0.12172958E-01  0.24164425E-02 -0.14694203E-01
 -0.83687512E-02 -0.12063702E-01 -0.22697867E-03
 -0.90042470E-02  0.27144982E-02 -0.10219193E-02
  0.19047337E-02 -0.52408049E-02  0.11301281E-01
 -0.43655409E-02 -0.26629208E-02  0.41738356E-02
  0.12006399E-02  0.91536450E-02  0.24404050E-02
 -0.28892346E-02  0.13031829E-01 -0.12733473E-02
  0.89176232E-03  0.26830915E-02  0.42997255E-02
  0.67637039E-02  0.91741659E-02  0.12891324E-01
  0.40758351E-02 -0.54808529E-02 -0.18010134E-02
 -0.92356866E-02 -0.10999699E-02  0.16421511E-02
  0.90787645E-02 -0.11210052E-01 -0.10029726E-01
 -0.28384323E-02 -0.58821137E-02  0.16807226E-02
 -0.14025104E-01  0.20524325E-02 -0.77517975E-02
 -0.22111238E-03  0.23388334E-02  0.61703594E-02
 -0.28997588E-02  0.12924394E-01  0.30167001E-02
 -0.74238738E-03  0.67096239E-02 -0.75118612E-02
  0.39333233E-02  0.12590128E-01  0.74363019E-02
  0.87139108E-02  0.16333311E-02 -0.13191259E-01
  0.38074908E-02  0.18147029E-01 -0.30137682E-02
 -0.50531099E-02 -0.30874821E-02 -0.29435519E-03
  0.12168292E-01  0.58703399E-03 -0.30742443E-02
  0.98474274E-02  0.97641892E-02  0.60854495E-02
  0.36850601E-02 -0.29958221E-02  0.40207327E-02
 -0.34225621E-02  0.25908289E-02  0.55868836E-04
  0.61604551E-03  0.10460550E-01  0.67923266E-03
 -0.21342044E-02 -0.24251223E-02  0.18182151E-02
  0.18859092E-03  0.51612034E-03  0.37569656E-02
 -0.33352284E-02  0.19464638E-01 -0.43856671E-02
 -0.35913537E-02  0.59083104E-02  0.38626693E-02
 -0.80320052E-03 -0.18555228E-02 -0.59019301E-02
  0.11500084E-01 -0.27779857E-02  0.10502433E-02
  0.98977374E-02 -0.14658860E-02  0.54390253E-02
  0.46514402E-02  0.19430263E-02 -0.38327830E-02
 -0.27972549E-02 -0.82418171E-02 -0.39970961E-03
 -0.29565802E-02  0.83660413E-02  0.88952217E-03
  0.30215289E-02  0.20677242E-03 -0.10788225E-01
  0.10055629E-01  0.35127311E-02  0.32502758E-02
 -0.36926261E-02  0.11696511E-02  0.52426708E-02
  0.26344433E-02 -0.17519793E-02  0.78862971E-03
 -0.64504495E-02  0.44340902E-02  0.48769465E-02
 -0.52134314E-02  0.54970879E-02 -0.93544633E-03
  0.29436910E-02 -0.16267414E-01  0.47618286E-02
  0.88391215E-02 -0.64483242E-02 -0.99837206E-03
 -0.40818921E-02  0.17623680E-01 -0.26986610E-02
 -0.20526679E-02 -0.84492877E-02  0.36734442E-02
  0.76796406E-02  0.10314077E-01  0.94828737E-02
 -0.46076137E-03  0.37402209E-02 -0.49057295E-02
  0.95773489E-02  0.69861441E-02 -0.11769627E-01
 -0.62942231E-02 -0.39824604E-02  0.25087401E-02
 -0.52250127E-02 -0.20590337E-02 -0.87434460E-03
 -0.59125906E-04 -0.54356099E-02 -0.25494905E-02
 -0.15926107E-03  0.12054594E-01  0.33511047E-02
  0.14841084E-02  0.47121981E-02 -0.29298325E-02
 -0.80483822E-02 -0.28357675E-02  0.60817170E-02
 -0.12282596E-01  0.22647206E-02 -0.60803613E-02
 -0.90795205E-02 -0.98978041E-02  0.19036116E-02
  0.16938763E-01 -0.25950825E-02 -0.50605370E-02
  0.27743958E-02  0.36099540E-02  0.11417667E-04
 -0.18903157E-02  0.11152748E-01 -0.66335722E-02
  0.64602121E-02  0.45522959E-03  0.10545736E-01
 -0.61532143E-02 -0.83183847E-02  0.31010784E-02
 -0.95163825E-02 -0.90519317E-02  0.10855956E-02
 -0.36257568E-02  0.21675104E-02  0.14592067E-01
  0.57462262E-02  0.57650410E-02 -0.23233453E-02
  0.64376715E-02 -0.26880820E-03  0.14920414E-01
  0.12637889E-02  0.65529485E-03 -0.94050128E-02
  0.40532676E-02  0.45441231E-02 -0.15055009E-02
  0.51119660E-02  0.10874739E-02 -0.30798171E-06
  0.14170722E-01 -0.72684322E-02 -0.84669304E-02
 -0.38916497E-02 -0.42685806E-02 -0.54473202E-02
  0.36776223E-02  0.21781591E-02 -0.74628902E-02
 -0.42185521E-02 -0.98861479E-03 -0.16754730E-02
 -0.24227728E-02  0.52807322E-02 -0.73381634E-02
 -0.12663347E-01 -0.17749751E-02 -0.12752050E-01
 -0.67572179E-03 -0.41644217E-02 -0.87870280E-02
  0.98291721E-02  0.80230016E-02  0.74358100E-02
 -0.25733741E-02 -0.47739517E-02 -0.26232535E-03
 -0.92758555E-02  0.45667141E-02  0.68402463E-03
 -0.49501202E-02 -0.60297036E-02 -0.70297612E-02
  0.28946287E-02  0.14231137E-02 -0.21977747E-02
  0.58964956E-03  0.93350629E-02  0.51068459E-02
  0.83840620E-02 -0.93108768E-02  0.28753252E-02
 -0.14269749E-02  0.53503273E-02 -0.40987117E-02
 -0.12424771E-02 -0.45047217E-02 -0.74268028E-02
 -0.53180013E-02 -0.53812420E-02 -0.16003024E-02
 -0.24496134E-02  0.12390242E-01 -0.91021871E-02
 -0.18692139E-02  0.54095837E-02  0.11337183E-01
  0.51075751E-02 -0.37021540E-02  0.20701495E-02
  0.29238325E-02  0.29060193E-02 -0.10293520E-02
 -0.64089641E-02  0.97289360E-02 -0.34034367E-02
  0.92677629E-03 -0.13522616E-01  0.52583499E-02
 -0.10017506E-01  0.24647425E-02 -0.60066269E-02
 -0.15788440E-02  0.97516240E-03  0.63632395E-02
 -0.38340930E-02 -0.69124124E-02  0.49604827E-02
 -0.49347452E-02 -0.24491122E-02 -0.97482454E-03
  0.95930655E-02 -0.55132782E-03  0.62289556E-02
 -0.53216075E-02  0.72653774E-02 -0.13876926E-02
  0.17165798E-02 -0.10495510E-01  0.65483042E-02
 -0.46409591E-02 -0.16337176E-02 -0.52821721E-02
  0.11438634E-01  0.72118706E-02 -0.32926338E-02
  0.74138602E-02  0.84428840E-02 -0.48980474E-04
 -0.30395119E-04  0.35915516E-03  0.35181117E-03
 -0.15528955E-02 -0.21076686E-02 -0.20022829E-02
  0.68948465E-02 -0.94655151E-02 -0.89341563E-02
  0.41912914E-02 -0.13379193E-01  0.24755345E-02
 -0.48526606E-02 -0.12102444E-01 -0.25003310E-02
 -0.40586852E-02 -0.14687180E-01 -0.30937630E-02
 -0.66163788E-02 -0.65230864E-03 -0.15820695E-02
  0.44612441E-02  0.43652081E-02  0.80695684E-02

           1
  0.54731196234688684     
  0.40410996E+00  0.69700275E-03 -0.56094852E-03  0.00000000E+00
  0.68299362E+00  0.78333802E+00  0.98463756E+00
  0.67664248E+00  0.95254215E+00  0.94400585E+00
  0.68692505E+00  0.11553246E+00  0.13179738E-01
  0.68590922E+00  0.28428263E+00  0.44215043E-01
  0.68449780E+00  0.44432812E+00  0.99411996E+00
  0.68084943E+00  0.61226107E+00  0.34140946E-01
  0.80695220E+00  0.86256699E+00  0.96248827E+00
  0.80872090E+00  0.26006429E-01  0.97983239E+00
  0.81397458E+00  0.19178973E+00  0.76243847E-02
  0.80948667E+00  0.35745400E+00  0.56170332E-01
  0.80415587E+00  0.52835473E+00  0.10824463E-02
  0.81017858E+00  0.68994529E+00  0.97738963E+00
  0.93697747E+00  0.76982558E+00  0.98181303E+00
  0.93849437E+00  0.94670264E+00  0.98380541E+00
  0.93388608E+00  0.10019538E+00  0.42160862E-01
  0.93905350E+00  0.26507908E+00  0.40976733E-01
  0.93071986E+00  0.43690931E+00  0.14456759E-01
  0.93289012E+00  0.60773278E+00  0.15183882E-01
  0.61078119E-01  0.85779315E+00  0.97298589E+00
  0.60588027E-01  0.31126335E-01  0.98347195E+00
  0.59027874E-01  0.19017680E+00  0.97889349E+00
  0.59392302E-01  0.35645766E+00  0.28244249E-02
  0.53662312E-01  0.52847117E+00  0.43311797E-01
  0.59873395E-01  0.69288231E+00  0.16132721E-01
  0.18299293E+00  0.77943239E+00  0.99806606E+00
  0.18676804E+00  0.95067879E+00  0.97925026E+00
  0.18649942E+00  0.11788156E+00  0.97100682E+00
  0.18090914E+00  0.27874313E+00  0.94719666E+00
  0.17915439E+00  0.45126474E+00  0.99565966E+00
  0.18828137E+00  0.60974275E+00  0.55487674E-01
  0.30267945E+00  0.86289996E+00  0.12478403E-01
  0.30792033E+00  0.34251656E-01  0.98599668E+00
  0.30766469E+00  0.20000169E+00  0.98657162E+00
  0.30675107E+00  0.36758707E+00  0.97033165E+00
  0.30410215E+00  0.52266826E+00  0.98349185E+00
  0.30213383E+00  0.69424303E+00  0.97609754E+00
  0.42358249E+00  0.78088671E+00  0.98483141E+00
  0.42686043E+00  0.94585017E+00  0.97329417E+00
  0.43661858E+00  0.11448007E+00  0.98788394E+00
  0.43315306E+00  0.28283151E+00  0.98201886E+00
  0.43581963E+00  0.44833469E+00  0.96277529E+00
  0.42317123E+00  0.61193781E+00  0.20586786E-01
  0.55367717E+00  0.86514408E+00  0.40821588E-02
  0.55771399E+00  0.34977924E-01  0.98953939E+00
  0.56146326E+00  0.20080654E+00  0.18881785E-01
  0.56200049E+00  0.36153095E+00  0.99990727E+00
  0.55386191E+00  0.52924166E+00  0.33850632E-01
  0.55687766E+00  0.68969201E+00  0.98284817E+00
  0.76802842E+00  0.77584196E+00  0.99176071E+00
  0.76194539E+00  0.94792569E+00  0.97328415E+00
  0.76738024E+00  0.11232652E+00  0.20597319E-01
  0.77113825E+00  0.26985906E+00  0.55677223E-01
  0.76458576E+00  0.44852941E+00  0.50724206E-01
  0.76395850E+00  0.61052460E+00  0.67122489E-02
  0.90036572E+00  0.85870035E+00  0.97521991E+00
  0.88983438E+00  0.19262826E-01  0.87232045E-02
  0.89208469E+00  0.18313404E+00  0.37027636E-01
  0.89354724E+00  0.35313518E+00  0.43607350E-01
  0.89216319E+00  0.52388588E+00  0.81155395E-02
  0.89219529E+00  0.68921635E+00  0.11842604E-01
  0.15878549E-01  0.77326099E+00  0.23889080E-01
  0.22671653E-01  0.95076513E+00  0.99096566E+00
  0.16089652E-01  0.10656730E+00  0.30448116E-02
  0.14635359E-01  0.27013649E+00  0.98393396E+00
  0.14116127E-01  0.43901280E+00  0.62049626E-02
  0.16952874E-01  0.61130054E+00  0.98424921E+00
  0.14228538E+00  0.86604331E+00  0.18039315E-01
  0.14470978E+00  0.32960931E-01  0.93231249E+00
  0.14191381E+00  0.19620334E+00  0.97921310E+00
  0.14202598E+00  0.36299252E+00  0.96735135E+00
  0.13916140E+00  0.53041296E+00  0.39364653E-01
  0.14515674E+00  0.69773947E+00  0.24383076E-01
  0.26325701E+00  0.77938889E+00  0.99479996E+00
  0.26791215E+00  0.95228123E+00  0.53317810E-02
  0.26809849E+00  0.11889065E+00  0.99644116E+00
  0.26526413E+00  0.28506310E+00  0.98428161E+00
  0.26162441E+00  0.44550149E+00  0.96572034E+00
  0.26205443E+00  0.60534580E+00  0.96669824E+00
  0.38192123E+00  0.86071463E+00  0.97337229E+00
  0.39247459E+00  0.28779884E-01  0.99391391E+00
  0.39339076E+00  0.19834744E+00  0.97740270E+00
  0.39082032E+00  0.36114595E+00  0.74430261E-02
  0.38594527E+00  0.52556389E+00  0.99827330E+00
  0.38266886E+00  0.69438518E+00  0.78914173E-02
  0.50938261E+00  0.77767595E+00  0.11433053E-01
  0.50899193E+00  0.94885376E+00  0.98960346E+00
  0.52118086E+00  0.11936888E+00  0.98567914E+00
  0.51729118E+00  0.28101772E+00  0.36687116E-01
  0.51334912E+00  0.44450605E+00  0.33403874E-01
  0.51084673E+00  0.61378828E+00  0.27792066E-01
  0.64233011E+00  0.86710161E+00  0.21359542E-01
  0.63945414E+00  0.35065141E-01  0.99300616E+00
  0.64375004E+00  0.20029874E+00  0.33799487E-01
  0.64361874E+00  0.36386302E+00  0.27245808E-01
  0.63827020E+00  0.52597204E+00  0.17906978E-01
  0.63886589E+00  0.69907509E+00  0.17561246E-01
  0.21029125E+00  0.17817611E+00  0.72269933E+00
  0.21490762E+00  0.45144132E+00  0.22358031E+00
  0.67194328E+00  0.28078387E+00  0.68790543E+00
  0.65662393E+00  0.93213335E+00  0.18991707E+00