BoronNitride_doped_AlatN
   1.00000000000000
   17.352     0.0      0.0
   0.0     15.0272728065      0.0
   0.0      0.0     10.6393173197
  B  N Al
 48  47  129 
Cartesian 
0.0	0.0	0 
0.0	2.50454546774	0 
0.0	5.00909093549	0 
0.0	7.51363640323	0 
0.0	10.018181871	0 
0.0	12.5227273387	0 
2.169	1.25227273387	0 
2.169	3.75681820162	0 
2.169	6.26136366936	0 
2.169	8.76590913711	0 
2.169	11.2704546049	0 
2.169	13.7750000726	0 
4.338	0.0	0 
4.338	2.50454546774	0 
4.338	5.00909093549	0 
4.338	7.51363640323	0 
4.338	10.018181871	0 
4.338	12.5227273387	0 
6.507	1.25227273387	0 
6.507	3.75681820162	0 
6.507	6.26136366936	0 
6.507	8.76590913711	0 
6.507	11.2704546049	0 
6.507	13.7750000726	0 
8.676	0.0	0 
8.676	2.50454546774	0 
8.676	5.00909093549	0 
8.676	7.51363640323	0 
8.676	10.018181871	0 
8.676	12.5227273387	0 
10.845	1.25227273387	0 
10.845	3.75681820162	0 
10.845	6.26136366936	0 
10.845	8.76590913711	0 
10.845	11.2704546049	0 
10.845	13.7750000726	0 
13.014	0.0	0 
13.014	2.50454546774	0 
13.014	5.00909093549	0 
13.014	7.51363640323	0 
13.014	10.018181871	0 
13.014	12.5227273387	0 
15.183	1.25227273387	0 
15.183	3.75681820162	0 
15.183	6.26136366936	0 
15.183	8.76590913711	0 
15.183	11.2704546049	0 
15.183	13.7750000726	0 
1.446	0.0	0 
1.446	2.50454546774	0 
1.446	5.00909093549	0 
1.446	7.51363640323	0 
1.446	10.018181871	0 
1.446	12.5227273387	0 
3.615	1.25227273387	0 
3.615	3.75681820162	0 
3.615	6.26136366936	0 
3.615	8.76590913711	0 
3.615	11.2704546049	0 
3.615	13.7750000726	0 
5.784	0.0	0 
5.784	2.50454546774	0 
5.784	5.00909093549	0 
5.784	7.51363640323	0 
5.784	10.018181871	0 
5.784	12.5227273387	0 
7.953	1.25227273387	0 
7.953	3.75681820162	0 
7.953	8.76590913711	0 
7.953	11.2704546049	0 
7.953	13.7750000726	0 
10.122	0.0	0 
10.122	2.50454546774	0 
10.122	5.00909093549	0 
10.122	7.51363640323	0 
10.122	10.018181871	0 
10.122	12.5227273387	0 
12.291	1.25227273387	0 
12.291	3.75681820162	0 
12.291	6.26136366936	0 
12.291	8.76590913711	0 
12.291	11.2704546049	0 
12.291	13.7750000726	0 
14.46	0.0	0 
14.46	2.50454546774	0 
14.46	5.00909093549	0 
14.46	7.51363640323	0 
14.46	10.018181871	0 
14.46	12.5227273387	0 
16.629	1.25227273387	0 
16.629	3.75681820162	0 
16.629	6.26136366936	0 
16.629	8.76590913711	0 
16.629	11.2704546049	0 
16.629	13.7750000726	0 
0.990	1.782	7.772
1.902	4.135	3.263
9.839	3.012	6.916
11.652	13.191	3.394
13.163	2.891	7.576
16.744	3.222	7.770
10.300	10.616	4.566
7.759	3.435	7.359
15.214	1.576	7.419
13.673	1.379	2.798
7.257	8.691	7.766
2.518	12.887	5.629
16.684	7.736	7.797
3.729	9.481	2.882
8.301	10.875	2.892
13.979	5.322	6.628
10.932	4.887	3.307
10.602	14.087	7.749
15.550	12.518	4.397
1.877	4.565	5.318
6.893	12.300	7.506
2.874	13.990	7.253
10.654	5.624	7.806
2.664	11.319	4.374
13.969	13.153	7.791
8.606	8.320	4.124
12.962	7.839	7.759
5.391	3.224	2.823
4.619	5.576	6.062
7.653	1.319	5.824
8.668	6.345	7.447
8.111	4.029	2.811
17.434	12.132	4.929
11.975	11.242	3.683
5.933	7.195	7.759
7.644	10.840	4.907
14.807	2.457	4.568
9.192	3.477	4.674
6.483	4.938	6.991
9.167	9.810	6.908
15.191	5.988	2.771
9.513	1.422	2.882
7.726	15.035	7.805
17.371	11.189	7.767
14.312	10.120	7.753
16.984	2.821	5.160
17.360	14.848	7.798
7.907	15.069	3.843
11.045	12.965	5.491
3.381	7.988	7.746
13.601	15.039	7.239
11.001	9.717	2.837
8.221	12.845	3.217
4.197	10.472	7.777
8.126	1.513	7.763
4.015	12.543	2.877
12.943	1.353	4.653
5.829	7.732	3.440
12.677	14.952	5.020
9.234	12.480	7.764
11.005	15.080	3.426
3.714	0.952	7.782
16.371	1.285	2.891
16.870	9.975	5.484
17.430	12.985	2.863
11.982	6.428	5.565
0.942	6.650	3.484
9.852	7.934	6.807
12.932	11.050	6.375
5.275	2.632	6.862
17.352	7.360	3.850
0.971	8.849	7.827
6.220	9.589	5.543
1.258	15.038	5.375
6.806	3.463	4.209
0.954	14.135	7.783
12.791	7.256	3.402
0.979	1.133	2.954
0.987	2.692	5.638
11.670	1.014	7.749
0.997	9.633	3.739
13.714	9.841	3.846
15.909	5.546	7.760
4.006	4.616	7.740
13.829	5.044	4.528
2.952	15.061	3.847
6.927	5.638	2.849
11.602	10.645	7.807
9.111	6.399	4.353
11.719	2.641	3.040
9.701	14.376	5.962
17.381	4.478	2.870
15.690	4.188	5.979
15.889	6.985	5.191
17.363	5.269	5.823
3.823	3.716	4.627
5.147	13.202	6.146
4.820	15.166	7.174
11.064	1.107	5.776
4.647	10.628	4.880
13.743	13.098	5.521
0.992	11.543	5.710
14.161	12.140	2.802
13.547	7.667	5.856
2.294	11.078	7.715
10.702	8.216	4.408
6.945	6.910	5.851
6.324	10.581	2.862
15.277	14.200	6.347
4.626	0.988	4.847
2.763	8.296	5.581
0.983	14.115	2.835
14.627	15.009	3.468
16.784	15.017	4.456
2.885	1.732	2.904
14.956	8.249	3.957
0.999	6.684	5.765
1.555	5.347	7.740
3.692	6.426	2.933
16.456	10.341	3.563
6.236	14.992	5.773
2.900	1.287	5.932
6.153	15.014	2.888
11.285	4.502	5.677
16.638	0.936	5.718
7.082	13.068	5.670
4.578	7.668	4.999
6.507	0.949	2.853
7.953	6.26136366936	0 
