TiAdatoms_ONLY
   1.00000000000000     
    17.3520000000000003    0.0000000000000000    0.0000000000000000
     0.0000000000000000   15.0272728064999992    0.0000000000000000
     0.0000000000000000    0.0000000000000000   20.0000000000000000
   Ti
   48
Direct
0.0783629157147963   0.0033138627563613   0.2200000000000
0.0795580542910209   0.1708288960039922   0.2200000000000
0.0794454370519840   0.3375273125549330   0.2200000000000
0.0784198139635535   0.5026788608702462   0.2200000000000
0.0782045738220564   0.6694507939762026   0.2200000000000
0.0786331867369055   0.8363015662559289   0.2200000000000
0.2041346373612488   0.0885697277956222   0.2200000000000
0.2049653704406801   0.2559259377912342   0.2200000000000
0.2046973532557762   0.4207394947179471   0.2200000000000
0.2028731419890180   0.5852675090105165   0.2200000000000
0.2015646289278706   0.7545620856915086   0.2200000000000
0.2036951593989324   0.9218072120021713   0.2200000000000
0.3307083772784960   0.0038300350049891   0.2200000000000
0.3307275775143884   0.1706679620019530   0.2200000000000
0.3317405319829295   0.3382976333010906   0.2200000000000
0.3289960490822539   0.5038204086963662   0.2200000000000
0.3270010305272205   0.6702803959409861   0.2200000000000
0.3296710031994450   0.8370825250980298   0.2200000000000
0.4554310796182091   0.0876115366994376   0.2200000000000
0.4561059035789414   0.2546355021084230   0.2200000000000
0.4554324346085835   0.4219216970364619   0.2200000000000
0.4533490918147350   0.5870914810695781   0.2200000000000
0.4541053229966351   0.7528455014487577   0.2200000000000
0.4547050133430948   0.9199218013984602   0.2200000000000
0.5791842858198297   0.0039724140278210   0.2200000000000
0.5800354117035800   0.1706930701349355   0.2200000000000
0.5798437870081811   0.3370138509873234   0.2200000000000
0.5788136010646169   0.5029730766754138   0.2200000000000
0.5794197725928454   0.6690894746811518   0.2200000000000
0.5770704097996991   0.8368782125363631   0.2200000000000
0.7040819697011657   0.0861676644634115   0.2200000000000
0.7041107143719610   0.2538091847828955   0.2200000000000
0.7041055599365698   0.4192625697927825   0.2200000000000
0.7042045643190884   0.5859877869246085   0.2200000000000
0.7029915923713830   0.7529710131010831   0.2200000000000
0.7037911606124428   0.9197245753286275   0.2200000000000
0.8288610054593814   0.0020062982980737   0.2200000000000
0.8287604287370285   0.1689674529625008   0.2200000000000
0.8289409742109475   0.3362543521480357   0.2200000000000
0.8293145627795012   0.5029055067771580   0.2200000000000
0.8289468344483356   0.6700359502738746   0.2200000000000
0.8292159702515641   0.8359234973826548   0.2200000000000
0.9545924410201808   0.0857190328154908   0.2200000000000
0.9538533295921938   0.2525162711196522   0.2200000000000
0.9539599997574145   0.4202533842314681   0.2200000000000
0.9538248373617683   0.5860300545353707   0.2200000000000
0.9541767576950662   0.7531436897477622   0.2200000000000
0.9535257064934416   0.9193530433452785   0.2200000000000
