BoronNitride                            
   1.0000000000000000     
    17.3520000000000003    0.0000000000000000    0.0000000000000000
     0.0000000000000000   15.0272728064999992    0.0000000000000000
     0.0000000000000000    0.0000000000000000   10.6393173196999999
   B    N    Al
    47    48   129
Direct
  0.9946486169551637  0.0033150360186109  0.9930618512853852
  0.9963541032722540  0.1699454343205779  0.0000531308980883
  0.9967665217364009  0.3368703208759942  0.0057745856383150
  0.9960564383067417  0.5039227054114175  0.0023168233371642
  0.9948245972519801  0.6712455608463384  0.9991952196620867
  0.9939782695982756  0.8381091549927269  0.9879035428864200
  0.1196541137032179  0.0881166872854226  0.9961399268208033
  0.1214838679853592  0.2548809349611774  0.0038562379656782
  0.1224940745070314  0.4218638311072282  0.9972926691235554
  0.1198205072824677  0.5878109559986034  0.0097112474778018
  0.1188772858163699  0.7544889628531996  0.0011730291854574
  0.1187512447814544  0.9214035903682943  0.9911102469109031
  0.2473892441692128  0.0044841947955588  0.9637945193572685
  0.2458293803350928  0.1706696403480255  0.0260860102976245
  0.2468175645928433  0.3382414534966177  0.9549005313481195
  0.2460640243967125  0.5040614246666918  0.0036587163286096
  0.2448458732278357  0.6719117100316351  0.0364387172560447
  0.2447594482749695  0.8374391935675231  0.9709364939023354
  0.3718875204866278  0.0883061431630462  0.0055600431069355
  0.3731109731022378  0.2560711469370902  0.0006138855318288
  0.3713656128089444  0.4240917893419122  0.0231147578046892
  0.3686711528430752  0.5899101893551443  0.9842298539681025
  0.3700669619848696  0.7577997782260750  0.9966169937308271
  0.3697813220273473  0.9222629975183814  0.0124988332384852
  0.4963303410956711  0.0059047236733355  0.0158843837635184
  0.4970816033940275  0.1724798043451626  0.0176460835480118
  0.4961799937569227  0.3381255774919626  0.0412107311828619
  0.4940460403885671  0.6701981566746085  0.0024615290219323
  0.4940122547104683  0.8386683663963459  0.0042450293970271
  0.6204338681933962  0.0882280690298490  0.0184840941342090
  0.6213749133224274  0.2550335788725837  0.0245915383368028
  0.6267443964942275  0.4226262925119790  0.0655473806282846
  0.6217647336464865  0.5919140145033285  0.0264272661381428
  0.6191225012245197  0.7532569714738084  0.9662242326183502
  0.6191876014806055  0.9195016020860733  0.0284313573016702
  0.7454739856867548  0.0044041451609251  0.0072421137153156
  0.7466982884982167  0.1714275157376926  0.0460922269816414
  0.7445329959194320  0.3354429038427679  0.9970259456093208
  0.7460486886758779  0.5033832400564274  0.9917596703410662
  0.7450567377589826  0.6713766735761041  0.9837719512509538
  0.7452726689229472  0.8362423783625756  0.9948561005097475
  0.8712429585716467  0.0863869279581509  0.0269260195516878
  0.8717359306645807  0.2529775939821375  0.9996500362580732
  0.8710820361780098  0.4206500526101586  0.9937642768566051
  0.8705876113666778  0.5867517988562119  0.9911143958546462
  0.8698544639214862  0.7536779958648300  0.9967286171212688
  0.8699785436392685  0.9203489403072331  0.0029674449462225
  0.0780173297179122  0.0047412419913587  0.9890485268373642
  0.0797138550319064  0.1719810968817332  0.0044758912079370
  0.0800927535505412  0.3382133366737635  0.9985107489556206
  0.0789015810713556  0.5042847136237381  0.0086031938066932
  0.0780005376293499  0.6705728340303306  0.0023714902277027
  0.0779420006374308  0.8374067539472372  0.9823426782465847
  0.2034455763970700  0.0902057125345282  0.9833823542031932
  0.2051152201428010  0.2574443058727366  0.0117450683972365
  0.2048145739149438  0.4225693773049151  0.9849478018572159
  0.2029428123064768  0.5868442340636529  0.0192568712307753
  0.2015922890841940  0.7560704321834927  0.0216653088235393
  0.2028552134907436  0.9227026500405092  0.0045547014379314
  0.3300494950834228  0.0059832826946392  0.0002785781093916
  0.3307017444649462  0.1724838882169735  0.0061514389702341
  0.3315909610514064  0.3408325892435062  0.9936119343095136
  0.3292960645115353  0.5066956460192091  0.0074803770953352
  0.3283831091259343  0.6736290399059719  0.0072865158194389
  0.3285690443693141  0.8401444942882310  0.0023926696195206
  0.4550545186387659  0.0893282392803063  0.0086234662864632
  0.4555579411777949  0.2554847937211757  0.0167943876916228
  0.4533337892892580  0.4225366114937705  0.0427211494565356
  0.4486589662616258  0.5959533086562889  0.9436577610044958
  0.4526909383331664  0.7569712385706081  0.9994880472614263
  0.4535539311385007  0.9225847598203112  0.0275995495721039
  0.5780623704950997  0.0056715812973673  0.0136537786836515
  0.5795215505431217  0.1722028813740106  0.0241543792581113
  0.5801289150953948  0.3405142198398669  0.0171882258969199
  0.5821611326012777  0.5075700293747722  0.0447081845751439
  0.5780241666425093  0.6705836658409029  0.9844491285123780
  0.5759969388981038  0.8383994501378971  0.9830412013664536
  0.7038640198937018  0.0871899560748650  0.0219941568040071
  0.7041759668595651  0.2548283427051632  0.0222173887645080
  0.7027121648004578  0.4197602972169410  0.9897007833822160
  0.7032208991012588  0.5869763554198609  0.9784001099008595
  0.7031297431322188  0.7540005002775568  0.9909385725041844
  0.7028770561706655  0.9211402734160710  0.9838900320545850
  0.8280911306502622  0.0031910945641718  0.0112215176451394
  0.8286561651221507  0.1698450313560072  0.9933580503404333
  0.8291885970415794  0.3364914524140852  0.0070130976859353
  0.8300270854083598  0.5037500187545360  0.9875008036747519
  0.8288502382960130  0.6699031156982856  0.9887732339694275
  0.8282918387780651  0.8363936011046031  0.0022355146780419
  0.9544318763733773  0.0870438427045827  0.0019024826271815
  0.9545663262449131  0.2536935014365998  0.0016811064145243
  0.9545514155093587  0.4205001797544461  0.9971101639944904
  0.9538428549217718  0.5869060331045304  0.0020009724042192
  0.9533208370096070  0.7533070486499033  0.9922657071314750
  0.9527662249171003  0.9202405207066677  0.9940468586862572
  0.0598856605913958  0.0301606417720364  0.7218760992295309
  0.1069679928931936  0.3448145864126690  0.3066049453517447
  0.5707643870853210  0.2394015424333102  0.7303089963544221
  0.6299480012424961  0.8818902100578679  0.2246924476268080
  0.7205323726997900  0.2810268905502685  0.7325552115739253
  0.9891268382852451  0.2214178611542232  0.7455272401869099
  0.5691967621232633  0.7665959008979357  0.3667706916817665
  0.4140632390130108  0.1993504605656841  0.7133342280758458
  0.9232516862149557  0.0749214225709473  0.7103048062339020
  0.7738715599478906  0.1517644203110935  0.2632143781880860
  0.4473331502356999  0.6367130164158038  0.7711557727865745
  0.1175919376079834  0.7626762222647605  0.4919391840215246
  0.9086681517790045  0.5487480910765405  0.6432748736997779
  0.2147930016226979  0.5862864733910619  0.2300932205243789
  0.4874187684308650  0.6687448594146321  0.2093676897294893
  0.7977532042410727  0.4456231079766250  0.7276635172954873
  0.6416782316138326  0.3665958022500203  0.2566425089031301
  0.6846559113057221  0.9164159096125114  0.7936462400076253
  0.9662371504218465  0.7992164212915438  0.4753790924465835
  0.1672953931309430  0.3761067473805969  0.5298999132398041
  0.3908770882511554  0.7927914686855886  0.7316228632886672
  0.1703374552527152  0.9285357050229535  0.6443587549933882
  0.6214960000709687  0.3855408690631002  0.8435410964357661
  0.0900384290029769  0.6649070377992027  0.2883663511374031
  0.8019978595582775  0.8155259082831504  0.7249247777691233
  0.5147232714171694  0.5872615536768424  0.4129651691768193
  0.6765423898913530  0.5607452567066591  0.7864183118395521
  0.3599637313003948  0.1841532654529240  0.2087370864313327
  0.3212229687942700  0.3252175582981567  0.5572280902923560
  0.4485596832103182  0.0592657927559860  0.5508238047294249
  0.4954095080070716  0.3903998218600042  0.7030046521253304
  0.4959113299839867  0.2906398509159749  0.2661302310071546
  0.9427885394229545  0.9407629914715356  0.3061229781186225
  0.7317645576688944  0.7890071914796893  0.3308140402322710
  0.3579607826371498  0.4931149784607348  0.7201164082653546
  0.4188455594552286  0.7437875677446291  0.3971907824545023
  0.8629488634879932  0.0447389908223725  0.4767081642818728
  0.4806711105777452  0.2612452306202975  0.5109649075069389
  0.3592556364269892  0.3398567856205807  0.8064622381296209
  0.5283341819375711  0.7239397493453557  0.5945193365212990
  0.8171290615198433  0.3275898915259133  0.2194277691263370
  0.4920499040880763  0.1109395989316400  0.3154825682907132
  0.4415068702305037  0.9528312146004349  0.7607874944420945
  0.9433465623173048  0.7187768077330340  0.7131076828252327
  0.7973733836682059  0.6445536448674434  0.7139223075669883
  0.8836004539989980  0.2235700346542653  0.4035091734144833
  0.8082431366544345  0.1550246020482692  0.8073154621426114
  0.5580264815850640  0.9558239605909248  0.4104587799402374
  0.6634243312837755  0.8368291876501769  0.5427394706814196
  0.1870637531003344  0.4912963419886152  0.7196751521342787
  0.8013258151484011  0.9908235506917904  0.7001498460275197
  0.6456709545936774  0.6461098678501175  0.2400425330304118
  0.4627663860784692  0.8842363824881790  0.2559962430955979
  0.2933618670970174  0.6498077727226893  0.7232626491305002
  0.5221368021464179  0.0891044655554242  0.7853926048516331
  0.3165430073237026  0.8526105969427162  0.3071382417933122
  0.7538920267835059  0.1680065049535473  0.5253348343573511
  0.3699163217080125  0.5277275026603494  0.2963605584680113
  0.7069299098596193  0.0005817108180429  0.5004402222310739
  0.5460572199089634  0.8269308215138543  0.7863078952787133
  0.6513396906060600  0.0445879227236030  0.2704511504240910
  0.1935552172072490  0.0723080359425171  0.7932723795493122
  0.9218594692379342  0.1008997431242134  0.2403582344244041
  0.0103132092936740  0.6322070936354592  0.5084737179178421
  0.0635368890169479  0.8382743150554948  0.2661702949103860
  0.6630198902137233  0.4342937860576351  0.6178012680223147
  0.2268133809718615  0.2759954374548101  0.1977659130450743
  0.5522781063520447  0.5534508095331784  0.6489976820512668
  0.6921874654237450  0.6671368260730136  0.5042071613721206
  0.2787699882942798  0.1476526959865307  0.6453826580917429
  0.8548434998314278  0.6841649398459093  0.4872879218613224
  0.0383914877151679  0.5620186926655663  0.7562887783493270
  0.3901927841885426  0.6188024510694226  0.5426187599563507
  0.0426795350122092  0.9407381189258176  0.5049637781208166
  0.3535016918359047  0.1680693759090085  0.4443010939922092
  0.2260131998888200  0.7993929183066121  0.7752932951969841
  0.7413869577490850  0.4849583948966199  0.2299554687198762
  0.0557793334897287  0.1867549271441816  0.2898736629225275
  0.1244017557624898  0.1935228847643976  0.6513292042143206
  0.6736001720003972  0.0959891518425911  0.7351127311386435
  0.0326046199377511  0.4971861640997302  0.3073847729311243
  0.7984716536019246  0.6422797323734396  0.2629602734695654
  0.9402423299989903  0.3977916465034646  0.7574716508789167
  0.2229742194375659  0.3055388275836203  0.7455429876319841
  0.7588479401826888  0.3501003885357742  0.4442674771624174
  0.1823622787637741  0.9028430224814963  0.4088900370760847
  0.3592442311598187  0.3439467864365581  0.3139318049421899
  0.6656286346114538  0.7312462211186442  0.7389028686081426
  0.5493418958318040  0.4065108787768602  0.4389398539255796
  0.6269070637295346  0.2046027043631118  0.3048518387638779
  0.5760067907462177  0.9626798257343013  0.6481405316279720
  0.9637033597121445  0.3360560078815591  0.2676541445995931
  0.8611041049320144  0.2687680574094538  0.6413340302865045
  0.8998487706124948  0.4012930405285285  0.4950774977979278
  0.0183216741222917  0.2845977413876659  0.5077927622442602
  0.2050066852907331  0.2253444537729925  0.4357493099010363
  0.2892065338897412  0.8261451069488209  0.5523642909303089
  0.2988047383514241  0.9575950207141396  0.7563770010726658
  0.5894796815906813  0.1171391568381652  0.5205898245505384
  0.2547073122083361  0.6750635848550338  0.4513413566482556
  0.8228536125849257  0.8713527266645502  0.4978006533683755
  0.1476461675053478  0.6631012939478707  0.6854928376584688
  0.8741464836607754  0.7962803722245670  0.2680739273985444
  0.7893405685387277  0.5225412692408531  0.4914922798659196
  0.0712901652956829  0.8154055514965308  0.7305852617948160
  0.6506690793728824  0.5181317264500055  0.4063151161301164
  0.4212453447605782  0.4511993199178301  0.5043001206622435
  0.3356609018239817  0.6853571484640395  0.2133215565419502
  0.9368150166428068  0.8995552045460508  0.6934508533683101
  0.3640598552789178  0.0164158427343903  0.2634945054336299
  0.1432133944500876  0.5526010014225284  0.4648848421850364
  0.2098647764627200  0.9441991593709107  0.1872644232059587
  0.7884024786631980  0.9620333923703774  0.2814356493833470
  0.0783796357464174  0.0173536083847354  0.2772083280628757
  0.2233172449377023  0.1064629629433115  0.2600522944295219
  0.8825028929913803  0.4883048763295630  0.2832126580749773
  0.0333996132791054  0.4573148993476145  0.5583688606970706
  0.0830502915648790  0.3562721424334074  0.7453902005995363
  0.2320265929523582  0.4314679592947165  0.3031119951011490
  0.9470935171378176  0.6446865673941806  0.2740097502070556
  0.3056738645368763  0.9998295943120711  0.4964718408484320
  0.1597107658953679  0.0662365577583472  0.4892462745593702
  0.2010967462045024  0.7632248027714248  0.2177095884670874
  0.6367861430477877  0.2788981095567267  0.5222348830850817
  0.0046975661129062  0.1109936339889195  0.5013418325072626
  0.4406443312490809  0.8842155663451357  0.5283688973911868
  0.2791521704659075  0.5026580229651492  0.5136873274007342
  0.5095318751272071  0.4864165590023045  0.1845370369977086
  0.5045817231814220  0.4908839727351013  0.9100548280428943

 -0.14990159E-03 -0.30939666E-03 -0.11535101E-02
  0.24971417E-03  0.16558361E-03 -0.37144001E-03
 -0.53875092E-03  0.24528428E-03  0.11840508E-03
 -0.42321409E-03  0.63010109E-03  0.61266784E-03
 -0.56111971E-03  0.10449397E-03 -0.60586001E-03
  0.38959234E-03  0.64096467E-03 -0.80864177E-04
 -0.66397375E-04 -0.37925433E-03  0.42155880E-03
 -0.41457342E-03  0.14699841E-03  0.16005947E-02
 -0.68451215E-03  0.51646874E-03  0.98696358E-03
  0.20416120E-03 -0.41397758E-03  0.17858543E-03
  0.12668763E-03 -0.85103965E-03 -0.14433043E-02
 -0.70600747E-03 -0.39056244E-03 -0.91714390E-03
  0.43051700E-03  0.15146774E-03 -0.14218123E-02
 -0.26528370E-03  0.24614399E-04 -0.21158807E-02
 -0.95342071E-03 -0.61111708E-04  0.24367809E-02
 -0.16391380E-04  0.73916388E-03 -0.10192497E-02
  0.23526466E-03  0.82238794E-03 -0.69079238E-04
  0.57265911E-03  0.56721789E-03  0.58350191E-03
  0.29622989E-05 -0.11360027E-02  0.85999858E-03
  0.39204692E-03 -0.76261020E-03 -0.14253063E-03
  0.35513409E-03 -0.27898219E-04 -0.16391767E-02
 -0.21707751E-04  0.10828059E-03  0.17508395E-02
  0.22520783E-03 -0.26659477E-03  0.84289749E-06
  0.42009742E-03 -0.66796800E-04 -0.43894996E-03
  0.42644314E-03 -0.28794548E-03 -0.81652254E-03
  0.26284848E-03 -0.10797015E-02 -0.20647557E-03
  0.71742115E-03 -0.34650522E-03 -0.15822204E-02
 -0.24046286E-03  0.33447412E-03  0.72795371E-03
  0.25572442E-03 -0.34034024E-03  0.16797284E-02
  0.20895370E-03 -0.26343138E-03  0.83269568E-03
 -0.65478615E-04 -0.50547941E-03 -0.35008067E-03
 -0.52925556E-03 -0.58990619E-03 -0.99901530E-03
  0.75668968E-03 -0.94901151E-03 -0.46820142E-03
 -0.12399099E-03 -0.44588818E-03  0.29782798E-02
 -0.16823401E-04  0.23545785E-03 -0.27533886E-02
  0.73545851E-03 -0.32603602E-03  0.15407499E-02
 -0.67779367E-03 -0.12834213E-03 -0.16025075E-02
 -0.30353489E-03 -0.26447025E-03  0.39128965E-03
  0.63643321E-03  0.46546316E-04 -0.18483354E-03
 -0.20818752E-03  0.40354208E-04  0.20003949E-02
  0.74232941E-03 -0.32805633E-03 -0.64616151E-03
 -0.14271349E-03  0.28938563E-04 -0.21307187E-02
 -0.29488261E-03  0.10835015E-03  0.98542511E-03
  0.15138018E-03  0.39718482E-03 -0.22407426E-03
 -0.17217143E-03 -0.11262868E-03 -0.19232978E-03
  0.11358411E-03 -0.24800962E-03 -0.14907256E-02
  0.26819930E-03  0.86612281E-04  0.17996799E-03
 -0.22493402E-03  0.21116499E-03  0.11355044E-02
  0.38193785E-03  0.26950729E-03 -0.20456141E-03
 -0.22561058E-03  0.24822342E-04 -0.11707899E-02
 -0.10041206E-02  0.60127083E-03 -0.22219889E-04
 -0.46304634E-04 -0.12839125E-02  0.14482827E-02
  0.16298438E-03 -0.71665563E-03  0.12863313E-02
 -0.36853152E-03 -0.17716392E-03 -0.70730700E-03
 -0.12026042E-02 -0.32372445E-03  0.46010044E-03
 -0.47432427E-03  0.40883805E-03  0.96586645E-03
 -0.27252268E-04  0.55097255E-03 -0.88084494E-03
 -0.25341227E-03  0.57290289E-03 -0.10829822E-02
  0.59730130E-04  0.90489563E-04 -0.16748996E-02
  0.26574446E-03 -0.69461262E-03 -0.11029483E-03
 -0.91171220E-06 -0.10163144E-02  0.62957044E-03
  0.45432681E-03 -0.45052174E-03 -0.12909622E-02
 -0.64276044E-03 -0.28022549E-03 -0.47664446E-03
  0.74951798E-03  0.48417181E-03  0.85141696E-03
  0.29277175E-03 -0.35185735E-03  0.43259122E-03
 -0.14670151E-03 -0.10958648E-02 -0.18589756E-03
  0.85554593E-03 -0.28804550E-03  0.40207287E-03
  0.28240982E-03 -0.13372541E-03 -0.10992663E-02
  0.20528080E-04  0.41789703E-03  0.12737387E-02
 -0.18722712E-03  0.51890990E-03 -0.11937710E-02
  0.25850592E-03  0.33367954E-03 -0.14224085E-02
  0.61571762E-04 -0.75091182E-05  0.57709103E-03
  0.32996685E-03 -0.55407090E-03 -0.49628383E-04
  0.16673845E-03 -0.45626248E-03  0.37968503E-03
  0.10723882E-03  0.10155648E-03  0.93487812E-03
  0.14771226E-03  0.14196964E-03  0.22700701E-02
 -0.10111668E-03 -0.33826179E-03 -0.80696499E-03
  0.57133380E-03 -0.26864483E-03 -0.39535250E-03
 -0.36407561E-03  0.11263194E-03 -0.40581532E-03
  0.26082787E-03  0.39890255E-04  0.84326995E-03
  0.52630506E-03  0.16121729E-03 -0.13032736E-02
  0.17079640E-03  0.18798345E-03 -0.24309550E-03
  0.77550655E-03  0.20722906E-03 -0.52328747E-03
  0.22521606E-03  0.21706038E-03  0.18871409E-03
 -0.25698398E-03  0.62053090E-04 -0.11908802E-03
 -0.25578542E-03  0.46444277E-03 -0.60572257E-03
  0.69263383E-03  0.43444737E-03 -0.31025036E-03
  0.14588544E-03 -0.28479976E-03  0.90699265E-03
  0.80306886E-03 -0.45325803E-04 -0.10669060E-02
  0.45820347E-04  0.54561166E-05  0.20016466E-02
 -0.32073612E-03  0.32085594E-03 -0.11193936E-02
 -0.11907243E-03  0.10933365E-02 -0.64121055E-03
 -0.50087927E-03 -0.93821381E-04 -0.73619875E-03
  0.50102909E-03 -0.11443154E-03  0.37766212E-03
 -0.22995721E-03 -0.22319381E-03 -0.34157790E-04
 -0.21069471E-03 -0.15615928E-03 -0.18245795E-03
  0.32954269E-03  0.62709983E-03 -0.88573979E-04
 -0.16453017E-03  0.75676216E-03  0.15362068E-03
  0.12825864E-03 -0.21939539E-04  0.11428088E-03
 -0.19606183E-03  0.21458613E-03 -0.38519443E-03
  0.55738284E-04  0.55843665E-03  0.98545305E-03
  0.35340027E-03  0.90671537E-04  0.31040974E-04
  0.73602205E-03 -0.30133805E-04  0.30597386E-03
 -0.52977019E-03 -0.72047786E-04 -0.97262941E-03
  0.94693942E-03  0.96909840E-06  0.21614231E-03
 -0.70085067E-03  0.52674438E-03  0.53633588E-03
  0.51332448E-03  0.74719356E-03  0.37293774E-03
  0.75230909E-05 -0.28642021E-03  0.35984308E-03
 -0.64664854E-04  0.64054472E-03  0.10263700E-03
 -0.10012497E-03 -0.77020620E-03  0.61229306E-03
 -0.51301083E-03 -0.44449476E-03 -0.46430577E-03
 -0.34149552E-03 -0.36563372E-03  0.73959193E-03
  0.79959941E-03 -0.62949582E-03  0.27155395E-03
 -0.48251784E-03 -0.38993899E-03  0.14663612E-04
  0.60025029E-03  0.40291247E-03 -0.69626589E-03
 -0.26594954E-03 -0.31782649E-03 -0.46303795E-03
 -0.30619459E-04 -0.10610377E-02  0.56854421E-03
  0.25161988E-03  0.13892895E-03  0.42528596E-03
 -0.18334679E-02  0.65570063E-04 -0.66282513E-03
  0.10823313E-02  0.31301896E-04 -0.15265299E-03
  0.58066896E-03 -0.42949560E-03 -0.38143812E-03
 -0.93328280E-04  0.14555072E-03  0.10006632E-02
 -0.23447530E-04  0.50908873E-03 -0.42432968E-03
 -0.53568937E-03 -0.91460564E-03 -0.76345376E-04
  0.26397423E-03 -0.24355615E-03  0.11200272E-02
 -0.22297100E-03 -0.28123123E-03  0.24439464E-04
  0.38110941E-03 -0.84189284E-03 -0.45648623E-03
 -0.24429694E-04  0.12771037E-03  0.70545562E-03
 -0.11648916E-02 -0.40914187E-03 -0.59870111E-03
 -0.54025580E-03  0.24599787E-03  0.11609504E-02
 -0.14523211E-03 -0.56777824E-03  0.69348873E-03
  0.30098971E-03  0.97078901E-04 -0.65343697E-04
 -0.92417543E-03 -0.96168139E-03 -0.36220754E-03
 -0.13653840E-03 -0.14066025E-03  0.41068194E-04
 -0.44081813E-03  0.71511900E-05 -0.61937585E-03
 -0.81759446E-03  0.24969661E-04  0.15104246E-03
  0.10998504E-02  0.45944727E-03 -0.67027740E-03
  0.62588522E-03 -0.59224993E-03  0.71650404E-04
 -0.91354410E-03 -0.49855211E-03 -0.20787048E-03
  0.71801363E-04 -0.45975666E-03 -0.48666260E-03
 -0.94917193E-04  0.32460024E-03  0.89731102E-03
  0.20300481E-03 -0.27158132E-03  0.11743734E-04
  0.32340046E-03  0.86991869E-03  0.23860189E-03
  0.10253565E-03 -0.79522980E-04  0.30827905E-03
  0.55235309E-03  0.15449833E-02  0.30327423E-03
 -0.29782732E-03  0.88317944E-04  0.12460595E-03
 -0.19763039E-03 -0.53862855E-03  0.46221725E-04
  0.14237983E-02 -0.11054587E-02 -0.70232798E-03
 -0.48323214E-03 -0.65952457E-03 -0.28612425E-03
  0.19228815E-03 -0.38271891E-03 -0.33319921E-04
  0.66797767E-03  0.75648447E-03 -0.22173907E-03
 -0.81432858E-04  0.20895949E-03 -0.46297962E-03
 -0.30622383E-03  0.24071219E-04 -0.25087878E-04
  0.17525810E-03  0.19491777E-03  0.24787560E-04
 -0.16042145E-03 -0.68655852E-04  0.65202599E-03
  0.58968922E-03 -0.34459779E-03  0.73223750E-03
  0.23264450E-03  0.28414703E-03  0.32973495E-03
  0.11224212E-02 -0.12033053E-03  0.52899055E-03
  0.15904364E-03 -0.33614193E-04  0.70710167E-04
 -0.16183748E-03 -0.10696272E-03  0.78693680E-03
 -0.20484791E-03 -0.24516772E-04 -0.91956546E-03
 -0.57884934E-03 -0.15862426E-02  0.21510490E-03
 -0.13518285E-05 -0.62569767E-03 -0.30462299E-03
 -0.71790560E-03  0.94809334E-04  0.62366644E-03
  0.53838864E-03 -0.32023643E-03 -0.12311283E-03
 -0.57778458E-03  0.80669922E-03  0.53131878E-03
  0.34984422E-03 -0.10264704E-02  0.24275655E-03
  0.59936773E-03  0.13149582E-04  0.47551115E-03
  0.14514143E-03 -0.13732127E-03 -0.27081343E-04
 -0.43418777E-03  0.98015607E-03 -0.60640660E-03
 -0.94183936E-04  0.99886947E-04 -0.29254337E-03
  0.41722468E-03  0.33898519E-03 -0.12899487E-02
  0.69969120E-03 -0.20124845E-03 -0.49680198E-03
  0.13124461E-03  0.67937610E-03  0.14779935E-03
 -0.87162978E-03 -0.29415251E-03 -0.28816706E-03
  0.56322403E-03  0.69024942E-03  0.11391890E-03
 -0.20783511E-03 -0.11523400E-02  0.14520433E-03
  0.50051707E-03  0.43785138E-03 -0.74851781E-03
 -0.58342873E-04  0.11536786E-03  0.17630580E-03
  0.12481073E-03 -0.42165216E-03  0.43809071E-03
 -0.12332399E-03  0.42440317E-03 -0.65077196E-03
  0.34993668E-04  0.24605386E-03  0.36181178E-04
 -0.93144949E-03 -0.55894316E-03 -0.67760985E-04
  0.16565927E-03  0.75550054E-03 -0.37592521E-03
  0.28441293E-04 -0.13422420E-03 -0.35873966E-03
 -0.21372801E-03  0.37163643E-03 -0.61692944E-03
 -0.65849289E-03  0.11441043E-03  0.65522737E-04
 -0.47769079E-03  0.18182502E-03  0.49175729E-04
  0.33413436E-03 -0.42201399E-03 -0.76074359E-03
  0.11324457E-02  0.71990115E-03 -0.58232131E-03
 -0.14299177E-03  0.73683935E-03  0.13122642E-02
  0.98410481E-03  0.93005513E-04  0.25352811E-03
 -0.11367645E-03  0.12962500E-02 -0.57746457E-03
  0.60567583E-03 -0.27918355E-03 -0.13448433E-03
  0.53164628E-03  0.48208861E-03  0.19192233E-03
  0.28373129E-03  0.27558134E-03 -0.98822706E-03
 -0.70589458E-03  0.27329085E-04 -0.40551387E-03
  0.64771033E-03  0.80673038E-03 -0.45500934E-03
 -0.19452406E-03  0.74070746E-03 -0.34912439E-03
 -0.11911717E-03 -0.29315878E-04 -0.51923287E-03
  0.41117928E-04  0.20618771E-04 -0.70234438E-04
 -0.38234841E-03 -0.55871001E-03 -0.16760577E-04
 -0.71141743E-03 -0.72711040E-04  0.27228016E-03
  0.70663477E-03  0.18451142E-04 -0.42091653E-03
 -0.32395949E-02  0.97813372E-03  0.16656460E-02
  0.48220115E-03  0.83494677E-03  0.38947951E-03
  0.44524442E-03 -0.93908251E-04  0.23891536E-03
 -0.22259772E-03 -0.39173698E-03 -0.78905723E-03
  0.55509430E-03  0.30770904E-03 -0.44996178E-03
 -0.17881651E-03 -0.57972217E-03  0.29135899E-03
  0.51558650E-03 -0.17135714E-03  0.29889242E-03
  0.34982249E-03  0.36990593E-03 -0.94161307E-03
  0.52277682E-03  0.53591689E-03  0.40070879E-03
  0.13849492E-03 -0.93398742E-04 -0.31177275E-03
  0.14110094E-03  0.61537200E-03  0.72435074E-03
  0.65419417E-04 -0.14832986E-02  0.28028360E-03
 -0.77940769E-03  0.70089212E-03  0.14308342E-03
 -0.47128143E-03  0.41598939E-03  0.11980766E-02
 -0.90406020E-03  0.44579763E-04 -0.65473185E-04
 -0.97997745E-03  0.15074582E-03  0.39513509E-04
 -0.69222041E-03  0.50825583E-03  0.89475612E-04
  0.22091526E-04 -0.49581155E-04 -0.19082378E-03
 -0.74940917E-03 -0.98191349E-03  0.24938294E-05
  0.51442913E-03  0.10453190E-02  0.14457246E-02

           1
  0.54731196234688684     
  0.69044230E+00 -0.23623972E-01 -0.80241981E-03  0.00000000E+00
  0.99464389E+00  0.33037674E-02  0.99300251E+00
  0.99636198E+00  0.16995147E+00  0.34023135E-04
  0.99674953E+00  0.33687925E+00  0.57806767E-02
  0.99604309E+00  0.50394565E+00  0.23483404E-02
  0.99480690E+00  0.67124937E+00  0.99916405E+00
  0.99399056E+00  0.83813250E+00  0.98789938E+00
  0.11965202E+00  0.88102874E-01  0.99616161E+00
  0.12147079E+00  0.25488629E+00  0.39385764E-02
  0.12247248E+00  0.42188264E+00  0.99734344E+00
  0.11982695E+00  0.58779588E+00  0.97204343E-02
  0.11888128E+00  0.75445797E+00  0.10987822E-02
  0.11872898E+00  0.92138937E+00  0.99106307E+00
  0.24740282E+00  0.44897114E-02  0.96372138E+00
  0.24582101E+00  0.17067054E+00  0.25977164E-01
  0.24678749E+00  0.33823923E+00  0.95502589E+00
  0.24606351E+00  0.50408835E+00  0.36062837E-02
  0.24485329E+00  0.67194166E+00  0.36435164E-01
  0.24477751E+00  0.83745985E+00  0.97096651E+00
  0.37188761E+00  0.88264769E-01  0.56042835E-02
  0.37312334E+00  0.25604337E+00  0.60655342E-03
  0.37137681E+00  0.42409077E+00  0.23030435E-01
  0.36867047E+00  0.58991413E+00  0.98431992E+00
  0.37007407E+00  0.75779007E+00  0.99661704E+00
  0.36979457E+00  0.92226056E+00  0.12476253E-01
  0.49634379E+00  0.58942363E-02  0.15842380E-01
  0.49708989E+00  0.17244048E+00  0.17635462E-01
  0.49620262E+00  0.33811296E+00  0.41129338E-01
  0.49403846E+00  0.67021034E+00  0.24989767E-02
  0.49402032E+00  0.83865597E+00  0.43314387E-02
  0.62044046E+00  0.88218475E-01  0.18526930E-01
  0.62137285E+00  0.25501517E+00  0.24573529E-01
  0.62672770E+00  0.42260481E+00  0.65495989E-01
  0.62178860E+00  0.59187945E+00  0.26403181E-01
  0.61911859E+00  0.75324073E+00  0.96637744E+00
  0.61918707E+00  0.91951018E+00  0.28289716E-01
  0.74549718E+00  0.43922705E-02  0.73213736E-02
  0.74667691E+00  0.17142284E+00  0.46009790E-01
  0.74452342E+00  0.33543327E+00  0.99704607E+00
  0.74606876E+00  0.50338494E+00  0.99175016E+00
  0.74505017E+00  0.67137814E+00  0.98387486E+00
  0.74529608E+00  0.83623043E+00  0.99482286E+00
  0.87123846E+00  0.86387982E-01  0.26816410E-01
  0.87172663E+00  0.25298154E+00  0.99970073E+00
  0.87108681E+00  0.42066452E+00  0.99375275E+00
  0.87058218E+00  0.58674770E+00  0.99110450E+00
  0.86985805E+00  0.75366896E+00  0.99665193E+00
  0.86998700E+00  0.92035209E+00  0.29767029E-02
  0.78010235E-01  0.47489329E-02  0.98910694E+00
  0.79725902E-01  0.17199091E+00  0.44653681E-02
  0.80085637E-01  0.33821424E+00  0.99845052E+00
  0.78869909E-01  0.50430661E+00  0.86020508E-02
  0.77999077E-01  0.67052607E+00  0.24459934E-02
  0.77947141E-01  0.83738065E+00  0.98240885E+00
  0.20343395E+00  0.90199260E-01  0.98334597E+00
  0.20507729E+00  0.25743252E+00  0.11768737E-01
  0.20479961E+00  0.42258427E+00  0.98499749E+00
  0.20294195E+00  0.58686430E+00  0.19211558E-01
  0.20158430E+00  0.75609130E+00  0.21609598E-01
  0.20285710E+00  0.92270595E+00  0.44685406E-02
  0.33005788E+00  0.59579840E-02  0.27290428E-03
  0.33070172E+00  0.17244687E+00  0.61838256E-02
  0.33160529E+00  0.34081618E+00  0.99354552E+00
  0.32927579E+00  0.50668544E+00  0.74558574E-02
  0.32840675E+00  0.67364667E+00  0.73303147E-02
  0.32857828E+00  0.84013168E+00  0.24149231E-02
  0.45504989E+00  0.89288327E-01  0.86139033E-02
  0.45558493E+00  0.25547430E+00  0.16815071E-01
  0.45334270E+00  0.42253174E+00  0.42664601E-01
  0.44865961E+00  0.59596853E+00  0.94372329E+00
  0.45268503E+00  0.75699014E+00  0.99942664E+00
  0.45356208E+00  0.92259691E+00  0.27526377E-01
  0.57806431E+00  0.56713078E-02  0.13683466E-01
  0.57953196E+00  0.17218270E+00  0.24151826E-01
  0.58013417E+00  0.34049760E+00  0.17207758E-01
  0.58216452E+00  0.50757373E+00  0.44756277E-01
  0.57802883E+00  0.67058884E+00  0.98456591E+00
  0.57599375E+00  0.83838713E+00  0.98299969E+00
  0.70388204E+00  0.87180172E-01  0.21973819E-01
  0.70416448E+00  0.25483244E+00  0.22196513E-01
  0.70272039E+00  0.41976175E+00  0.98974416E+00
  0.70323750E+00  0.58698223E+00  0.97833307E+00
  0.70313513E+00  0.75400735E+00  0.99092607E+00
  0.70290152E+00  0.92114782E+00  0.98386311E+00
  0.82809823E+00  0.31990002E-02  0.11231226E-01
  0.82864806E+00  0.16984729E+00  0.99335192E+00
  0.82918053E+00  0.33650837E+00  0.69819379E-02
  0.83004893E+00  0.50376584E+00  0.98748484E+00
  0.82885484E+00  0.66989274E+00  0.98881989E+00
  0.82831717E+00  0.83639195E+00  0.21806305E-02
  0.95443332E+00  0.87044041E-01  0.20054521E-02
  0.95455621E+00  0.25370519E+00  0.16235221E-02
  0.95454766E+00  0.42054000E+00  0.99707718E+00
  0.95382706E+00  0.58690262E+00  0.19631006E-02
  0.95333664E+00  0.75330288E+00  0.99228513E+00
  0.95275897E+00  0.92023239E+00  0.99404510E+00
  0.59879015E-01  0.30154954E-01  0.72186671E+00
  0.10697839E+00  0.34483743E+00  0.30660039E+00
  0.57075920E+00  0.23942910E+00  0.73031690E+00
  0.62995205E+00  0.88188941E+00  0.22469833E+00
  0.72052619E+00  0.28103471E+00  0.73253540E+00