BoronNitride                            
   1.00000000000000     
    17.3520000000000003    0.0000000000000000    0.0000000000000000
     0.0000000000000000   15.0272728064999992    0.0000000000000000
     0.0000000000000000    0.0000000000000000   10.6393173196999999
   B    N    Al
    47    48   129
Direct
 -0.0052627378628263  0.0039012455870763 -0.0063070240117261
 -0.0036219667088998  0.1702091350927045  0.0002255013741302
 -0.0030739782555884  0.3371281501932162  0.0056742578368591
 -0.0040020155156340  0.5038869931995184  0.0020234524531279
 -0.0047758880295878  0.6703833976483381 -0.0004200446605307
 -0.0060763798754525  0.8369156280991906 -0.0120598010248991
  0.1197691076837310  0.0887222186339758 -0.0040118975783190
  0.1214791944280871  0.2548896228870873  0.0030477487295931
  0.1224316602752338  0.4217746002263026 -0.0031447119421167
  0.1195181330156570  0.5878986286740681  0.0096061854732841
  0.1188320532270532  0.7542529583339616  0.0019562187421359
  0.1194491569829908  0.9215279024155589 -0.0083599724693256
  0.2473108826585842  0.0043410238134811 -0.0355053834694304
  0.2458571218039448  0.1705819115919689  0.0271307022549696
  0.2471362461618197  0.3381910685929839 -0.0463773250034128
  0.2458225563014658  0.5037678956635117  0.0041506290176582
  0.2446991300238120  0.6717117442181267  0.0365380622331692
  0.2445904324112151  0.8371903390494291 -0.0293757149257031
  0.3718542433924092  0.0885788982249441  0.0051544357658163
  0.3730844814404840  0.2562837738434128  0.0006891770486554
  0.3713169679211433  0.4239458859504527  0.0239204132088894
  0.3687430254096378  0.5899167344086506 -0.0166508303774998
  0.3699506626876779  0.7582387943149579 -0.0034044998211488
  0.3696637330401972  0.9221240996797153  0.0126981238045143
  0.4959703030582463  0.0058666972150221  0.0162900119003473
  0.4968305901949421  0.1728838968733421  0.0177344247513884
  0.4959120029766602  0.3383753898547875  0.0419914559024613
  0.4941069462012775  0.6701861166520177  0.0022598806008380
  0.4937853576639125  0.8390528230745021  0.0035048118282988
  0.6205267741851024  0.0881924156357264  0.0180748101895239
  0.6214164651202354  0.2553519492668471  0.0247600446181013
  0.6269439607529746  0.4228461855665824  0.0661429093680393
  0.6215485163202945  0.5923068532203754  0.0267133435576524
  0.6191990278215695  0.7535167581013561 -0.0352610108445805
  0.6192269632868316  0.9193907903812419  0.0299068991090105
  0.7449554521431323  0.0045823623007709  0.0064814587077197
  0.7469505107812677  0.1715630406835365  0.0468915927338438
  0.7447405117605416  0.3358386519248950 -0.0032301714878866
  0.7460612488965844  0.5033555516472449 -0.0081428051339080
  0.7454402631228997  0.6713021347499117 -0.0171986227912083
  0.7449324088302173  0.8365372302501309 -0.0048891223086851
  0.8711964776614162  0.0865496655221959  0.0280046544999725
  0.8717649009893096  0.2531152539915971 -0.0008274507912883
  0.8709671005061382  0.4207293101691904 -0.0061603786897631
  0.8709667280034463  0.5867861123282507 -0.0087742941833139
  0.8700710340464970  0.7533291389800959 -0.0025557887804367
  0.8694971900386204  0.9203457487950648  0.0029137207208055
  0.0778166179053797  0.0043647342447013 -0.0115217845726970
  0.0795323649581174  0.1716221219907644  0.0045689521151154
  0.0801603579633340  0.3382456463502088 -0.0009038127863180
  0.0795149957431748  0.5038814495964539  0.0086172553340562
  0.0780230305161501  0.6714181388164231  0.0016449476230911
  0.0776439320153859  0.8379821133400811 -0.0183257029599797
  0.2035693252151894  0.0902770238356411 -0.0162654506980571
  0.2056397383645499  0.2575801340826038  0.0115077463060745
  0.2050468020733842  0.4225166917415297 -0.0154468824983420
  0.2031522125270017  0.5866032252818209  0.0196369651040506
  0.2017513496463670  0.7558644681307383  0.0221703091273193
  0.2026202628143161  0.9227633623407802  0.0053505938244061
  0.3298950234665957  0.0063481434839225  0.0002789806926675
  0.3307073587576642  0.1729366790474029  0.0058183099397976
  0.3313891177051634  0.3410318844582804 -0.0057479172136325
  0.3295750879363937  0.5068882465298700  0.0077005277026367
  0.3280760828776212  0.6732668445348191  0.0069042197216832
  0.3285514928625392  0.8402020035989776  0.0022007366398637
  0.4552100284879165  0.0898949466202160  0.0087224240117616
  0.4552657716566230  0.2553926422676618  0.0165549170672916
  0.4532232935831025  0.4225801188130349  0.0432166571893826
  0.4486095936524317  0.5957867796610840 -0.0569102093087329
  0.4528195359590745  0.7566037404057909  0.0000640925556126
  0.4535785522155024  0.9223801231170459  0.0282291383062347
  0.5781968328373900  0.0057293701240915  0.0133482522859408
  0.5794160346692756  0.1723611040440565  0.0241764031477277
  0.5801096844897693  0.3406039752465686  0.0169541251182946
  0.5821295236539331  0.5075129469032926  0.0442311451298196
  0.5779777468127358  0.6704617041356061 -0.0166247849913028
  0.5761216877331607  0.8384771278172938 -0.0165808800690386
  0.7035907352241680  0.0872266541994635  0.0221610250055331
  0.7042271991730586  0.2545555525822701  0.0224674044389992
  0.7026135841502806  0.4196976753331252 -0.0106846612993711
  0.7029466061090608  0.5869000230443994 -0.0209369495716420
  0.7030246417221614  0.7539160841701501 -0.0088903524624612
  0.7026958804008498  0.9209615244477165 -0.0158347441930238
  0.8283508242323405  0.0028985852039864  0.0110917915646573
  0.8287445450917225  0.1697760500114721 -0.0065706245743752
  0.8292723653840145  0.3361751391511353  0.0073097085632599
  0.8295790774917733  0.5033707021284402 -0.0123667154682741
  0.8285428305173651  0.6702487561970580 -0.0116466910118173
  0.8280895282540623  0.8366369046461525  0.0027393409148599
  0.9544672197358177  0.0866861707532727  0.0008931435276170
  0.9546582711072044  0.2533920793905066  0.0022239447282827
  0.9546917628159393  0.4197838376055712 -0.0025653747473312
  0.9539781727367224  0.5871834305102872  0.0023220600168032
  0.9529986442180638  0.7541446146372764 -0.0079870330359327
  0.9529087171056971  0.9205340338163118 -0.0059682732405327
  0.0599455661665769  0.0302123211691309  0.7219558578012338
  0.1068670467932421  0.3446088721401678  0.3066397889712051
  0.5708090879734563  0.2391503557362906  0.7302434570401398
  0.6299069700854085  0.8819103846347132  0.2246021085525762
  0.7205859885796145  0.2809557537523992  0.7327323247626346
  0.9891073181702391  0.2212352639143070  0.7450712509388526
  0.5690981429998730  0.7665645378643869  0.3667537035229519
  0.4138541065156909  0.1993618477585225  0.7132013007968790
  0.9234085469366969  0.0749509065882728  0.7107543253604162
  0.7736050679824266  0.1517606909310883  0.2631062984750293
  0.4475329331203733  0.6365325094638392  0.7709033209589243
  0.1174467483501701  0.7624294997983990  0.4917573527689619
  0.9086658292664553  0.5488397765011420  0.6431052185022800
  0.2148021107285208  0.5860810338682749  0.2300607600551331
  0.4874426606918409  0.6689963104267146  0.2090855667352920
  0.7978979606447887  0.4457678706627730  0.7278760321252024
  0.6417793262236623  0.3667302405978201  0.2562847879684464
  0.6844279982019776  0.9166212903562123  0.7935047279056803
  0.9663780612266694  0.7993472912481066  0.4753794859578395
  0.1671245641263628  0.3759867931227103  0.5302242208247009
  0.3909490237384692  0.7928965162268984  0.7318406778945615
  0.1703447259235407  0.9288929133759276  0.6440856761758116
  0.6214257324990412  0.3854970065082284  0.8433145549327831
  0.0905745174279123  0.6648901961702738  0.2886718708362964
  0.8016874556543181  0.8155078055735698  0.7249882522818476
  0.5145569571571554  0.5874006587269475  0.4131473639805959
  0.6765660517337460  0.5606912228767553  0.7859358810924486
  0.3599709429200760  0.1839869574486383  0.2089354839776084
  0.3213773333086986  0.3255211481371089  0.5572651032498708
  0.4484808932287306  0.0593548678259990  0.5502986964551935
  0.4954716664511817  0.3904961299922337  0.7029986500697423
  0.4957995295411469  0.2909147631684831  0.2663364115137383
 -0.0572012829657810  0.9407266715712295  0.3058062963115075
  0.7321035697819329  0.7891327425437618  0.3310916806224068
  0.3581148723417749  0.4930338227985861  0.7195740958231504
  0.4188844495243699  0.7439765784205963  0.3968641672872867
  0.8628574195120501  0.0447058324040255  0.4767349151301287
  0.4809355800533895  0.2615669824018560  0.5111283817425327
  0.3592957118539801  0.3398960804966541  0.8064276275279001
  0.5284613369070558  0.7239361978115751  0.5948133283052167
  0.8173637960783701  0.3275820672863454  0.2193628704308647
  0.4917321603992351  0.1107807456991173  0.3157880227050436
  0.4413240515004090 -0.0469799958850192  0.7607672724062208
 -0.0563909667537887  0.7189413137992742  0.7132004048630720
  0.7973478438638516  0.6447047865190397  0.7141456546290481
  0.8836295586520980  0.2234633226879803  0.4030917214754838
 -0.1918197151898922  0.1551200499292550  0.8072933423978177
  0.5579269529887243 -0.0444666974958865  0.4103409478302492
  0.6633960871634600  0.8368580762341268  0.5425904425221577
  0.1869103911650780  0.4907945864229882  0.7195291638922543
  0.8014081221782028 -0.0092053569520797  0.7000857387423115
  0.6457261441208006  0.6462835320653441  0.2400250979380914
  0.4623584216491316  0.8846059994832677  0.2563206435244805
  0.2934940179866979  0.6500261139768539  0.7233955919623185
  0.5220824020166576  0.0892377662082723  0.7854020856818109
  0.3163561665779037  0.8523586185781061  0.3072399701571947
  0.7539131352310324  0.1679339312102810  0.5255521431828930
  0.3700072155486529  0.5277171150492447  0.2963789303845837
  0.7068831947708154  0.0005144504302315  0.5004292281795614
  0.5461066486978660  0.8269519153129682  0.7859928376249999
  0.6511763387720003  0.0447058500579379  0.2701135929211874
  0.1934817961695072  0.0722200068730456  0.7931027044603404
  0.9215409033361380  0.1009428013606137  0.2401219792112123
  0.0102685811118170  0.6322211040687170  0.5084456900794502
  0.0635810567125478  0.8383114767332781  0.2658142218450255
  0.6630784040870600  0.4343028823541258  0.6182351715753061
  0.2269739417664699  0.2765109229633413  0.1976955972602782
  0.5522727509674029  0.5536589836006450  0.6491489411166962
  0.6923877022144628  0.6671047002504922  0.5039167137768564
  0.2786202832151344  0.1477521893645908  0.6454444178194912
 -0.1449982336483071  0.6839036171865727  0.4870436655965858
  0.0382933063881150  0.5623518633083823  0.7561792197158510
  0.3900229872672903  0.6187871707311902  0.5424009348483861
  0.0426380656135715 -0.0592157956950552  0.5049753997550772
  0.3536242313674342  0.1677391080970723  0.4445833830998558
  0.2260438487232844  0.7993542513819962  0.7754343661034344
  0.7412633120684207  0.4848420634837757  0.2305478106762490
  0.0555855988198121  0.1868280548323710  0.2901028531202263
  0.1243603060376918  0.1932998174804536  0.6512627225228493
  0.6738519239904359  0.0960864956405754  0.7352443081721549
  0.0324446990632467  0.4969551397766472  0.3073265765870939
  0.7985359901983544  0.6426689829382244  0.2628981090240097
  0.9400980363006294  0.3976451724033117  0.7578137738446308
  0.2229968481363398  0.3055032048262428  0.7454711509808611
  0.7588122023614987  0.3502392040009569  0.4440731471100975
  0.1823988919678116 -0.0972945946064629  0.4092052638119983
  0.3592399502465536  0.3438652807216829  0.3139129529591743
  0.6658953853695545  0.7314257197226725  0.7389303258984840
  0.5492859762014314  0.4062579117757922  0.4391207445476342
  0.6269050246783132  0.2046394869195627  0.3050145120613255
  0.5760752704052499  0.9625486100108387  0.6484368277773976
 -0.0361040135029343  0.3360170904599817  0.2676206112750353
  0.8612425290160601  0.2687111281647727  0.6413216598685234
  0.8997554548867170  0.4014324059441564  0.4954309559339686
  0.0180063096621712  0.2843592042647110  0.5080593342996890
  0.2050453386737528  0.2250988111443071  0.4351424663638878
  0.2889250632739045  0.8261142901696933  0.5522435077109890
  0.2988437674239909 -0.0428272923933481  0.7566437583777054
  0.5893064234371213  0.1172333861374523  0.5206516666027629
  0.2545589888282914  0.6749053897594646  0.4512511346671665
  0.8227697489050435  0.8712620971710345  0.4982570564275192
  0.1478454465580377  0.6630961850838488  0.6856868588606365
  0.8739543278504834  0.7960072180188875  0.2682836535595752
  0.7893982999734970  0.5222995008161926  0.4916552117749682
  0.0713171259320096  0.8154076197339912  0.7308157097386589
  0.6506656322852564  0.5181243934189492  0.4063359588560866
  0.4213523158712714  0.4513809670815718  0.5043168856116306
  0.3358645204655649  0.6853884830816231  0.2132057091732406
  0.9366191887503424  0.8995484409812089  0.6936359345608851
  0.3649915985771128  0.0160928573777608  0.2627244712691530
  0.1430786656395987  0.5523334084914021  0.4647003438465429
  0.2097385648663929 -0.0557779934154542  0.1871042030008085
  0.7884648602583642  0.9621639838873802  0.2818047018813247
  0.0782200906166601  0.0172514255570315  0.2774182942687357
  0.2233632201559700  0.1066629887880115  0.2599260397247132
  0.8823588506423317  0.4883642323475449  0.2830712306861466
  0.0333027457527693  0.4571920650080017  0.5588023144343628
  0.0829020739476116  0.3561043049258021  0.7452048157651846
  0.2319857566340889  0.4314991746483949  0.3032483576164287
  0.9470385202035342  0.6444839389359437  0.2736771000548501
  0.3056542454576910  0.0003207352014237  0.4963506746943397
  0.1599320205869270  0.0660051325924810  0.4891855733299545
  0.2012296799409138  0.7630860455903803  0.2171526712385255
  0.6370385182736743  0.2788865399002125  0.5222618828502125
  0.0049782939003402  0.1109499901671390  0.5013192911480874
  0.4408434304964463  0.8840495289957240  0.5283118923815838
  0.2791506457200898  0.5026746041878428  0.5137761927352562
  0.5097419511187943  0.4867323772975651  0.1845540998357800
  0.5044451095792213  0.4905330264178884 -0.0906506792756761
 
  0.00000000E+00  0.00000000E+00  0.00000000E+00
  0.00000000E+00  0.00000000E+00  0.00000000E+00
  0.00000000E+00  0.00000000E+00  0.00000000E+00
  0.00000000E+00  0.00000000E+00  0.00000000E+00
  0.00000000E+00  0.00000000E+00  0.00000000E+00
  0.00000000E+00  0.00000000E+00  0.00000000E+00
  0.00000000E+00  0.00000000E+00  0.00000000E+00
  0.00000000E+00  0.00000000E+00  0.00000000E+00
  0.00000000E+00  0.00000000E+00  0.00000000E+00
  0.00000000E+00  0.00000000E+00  0.00000000E+00
  0.00000000E+00  0.00000000E+00  0.00000000E+00
  0.00000000E+00  0.00000000E+00  0.00000000E+00
  0.00000000E+00  0.00000000E+00  0.00000000E+00
  0.00000000E+00  0.00000000E+00  0.00000000E+00
  0.00000000E+00  0.00000000E+00  0.00000000E+00
  0.00000000E+00  0.00000000E+00  0.00000000E+00
  0.00000000E+00  0.00000000E+00  0.00000000E+00
  0.00000000E+00  0.00000000E+00  0.00000000E+00
  0.00000000E+00  0.00000000E+00  0.00000000E+00
  0.00000000E+00  0.00000000E+00  0.00000000E+00
  0.00000000E+00  0.00000000E+00  0.00000000E+00
  0.00000000E+00  0.00000000E+00  0.00000000E+00
  0.00000000E+00  0.00000000E+00  0.00000000E+00
  0.00000000E+00  0.00000000E+00  0.00000000E+00
  0.00000000E+00  0.00000000E+00  0.00000000E+00
  0.00000000E+00  0.00000000E+00  0.00000000E+00
  0.00000000E+00  0.00000000E+00  0.00000000E+00
  0.00000000E+00  0.00000000E+00  0.00000000E+00
  0.00000000E+00  0.00000000E+00  0.00000000E+00
  0.00000000E+00  0.00000000E+00  0.00000000E+00
  0.00000000E+00  0.00000000E+00  0.00000000E+00
  0.00000000E+00  0.00000000E+00  0.00000000E+00
  0.00000000E+00  0.00000000E+00  0.00000000E+00
  0.00000000E+00  0.00000000E+00  0.00000000E+00
  0.00000000E+00  0.00000000E+00  0.00000000E+00
  0.00000000E+00  0.00000000E+00  0.00000000E+00
  0.00000000E+00  0.00000000E+00  0.00000000E+00
  0.00000000E+00  0.00000000E+00  0.00000000E+00
  0.00000000E+00  0.00000000E+00  0.00000000E+00
  0.00000000E+00  0.00000000E+00  0.00000000E+00
  0.00000000E+00  0.00000000E+00  0.00000000E+00
  0.00000000E+00  0.00000000E+00  0.00000000E+00
  0.00000000E+00  0.00000000E+00  0.00000000E+00
  0.00000000E+00  0.00000000E+00  0.00000000E+00
  0.00000000E+00  0.00000000E+00  0.00000000E+00
  0.00000000E+00  0.00000000E+00  0.00000000E+00
  0.00000000E+00  0.00000000E+00  0.00000000E+00
  0.00000000E+00  0.00000000E+00  0.00000000E+00
  0.00000000E+00  0.00000000E+00  0.00000000E+00
  0.00000000E+00  0.00000000E+00  0.00000000E+00
  0.00000000E+00  0.00000000E+00  0.00000000E+00
  0.00000000E+00  0.00000000E+00  0.00000000E+00
  0.00000000E+00  0.00000000E+00  0.00000000E+00
  0.00000000E+00  0.00000000E+00  0.00000000E+00
  0.00000000E+00  0.00000000E+00  0.00000000E+00
  0.00000000E+00  0.00000000E+00  0.00000000E+00
  0.00000000E+00  0.00000000E+00  0.00000000E+00
  0.00000000E+00  0.00000000E+00  0.00000000E+00
  0.00000000E+00  0.00000000E+00  0.00000000E+00
  0.00000000E+00  0.00000000E+00  0.00000000E+00
  0.00000000E+00  0.00000000E+00  0.00000000E+00
  0.00000000E+00  0.00000000E+00  0.00000000E+00
  0.00000000E+00  0.00000000E+00  0.00000000E+00
  0.00000000E+00  0.00000000E+00  0.00000000E+00
  0.00000000E+00  0.00000000E+00  0.00000000E+00
  0.00000000E+00  0.00000000E+00  0.00000000E+00
  0.00000000E+00  0.00000000E+00  0.00000000E+00
  0.00000000E+00  0.00000000E+00  0.00000000E+00
  0.00000000E+00  0.00000000E+00  0.00000000E+00
  0.00000000E+00  0.00000000E+00  0.00000000E+00
  0.00000000E+00  0.00000000E+00  0.00000000E+00
  0.00000000E+00  0.00000000E+00  0.00000000E+00
  0.00000000E+00  0.00000000E+00  0.00000000E+00
  0.00000000E+00  0.00000000E+00  0.00000000E+00
  0.00000000E+00  0.00000000E+00  0.00000000E+00
  0.00000000E+00  0.00000000E+00  0.00000000E+00
  0.00000000E+00  0.00000000E+00  0.00000000E+00
  0.00000000E+00  0.00000000E+00  0.00000000E+00
  0.00000000E+00  0.00000000E+00  0.00000000E+00
  0.00000000E+00  0.00000000E+00  0.00000000E+00
  0.00000000E+00  0.00000000E+00  0.00000000E+00
  0.00000000E+00  0.00000000E+00  0.00000000E+00
  0.00000000E+00  0.00000000E+00  0.00000000E+00
  0.00000000E+00  0.00000000E+00  0.00000000E+00
  0.00000000E+00  0.00000000E+00  0.00000000E+00
  0.00000000E+00  0.00000000E+00  0.00000000E+00
  0.00000000E+00  0.00000000E+00  0.00000000E+00
  0.00000000E+00  0.00000000E+00  0.00000000E+00
  0.00000000E+00  0.00000000E+00  0.00000000E+00
  0.00000000E+00  0.00000000E+00  0.00000000E+00
  0.00000000E+00  0.00000000E+00  0.00000000E+00
  0.00000000E+00  0.00000000E+00  0.00000000E+00
  0.00000000E+00  0.00000000E+00  0.00000000E+00
  0.00000000E+00  0.00000000E+00  0.00000000E+00
  0.00000000E+00  0.00000000E+00  0.00000000E+00
  0.00000000E+00  0.00000000E+00  0.00000000E+00
  0.00000000E+00  0.00000000E+00  0.00000000E+00
  0.00000000E+00  0.00000000E+00  0.00000000E+00
  0.00000000E+00  0.00000000E+00  0.00000000E+00
  0.00000000E+00  0.00000000E+00  0.00000000E+00
  0.00000000E+00  0.00000000E+00  0.00000000E+00
  0.00000000E+00  0.00000000E+00  0.00000000E+00
  0.00000000E+00  0.00000000E+00  0.00000000E+00
  0.00000000E+00  0.00000000E+00  0.00000000E+00
  0.00000000E+00  0.00000000E+00  0.00000000E+00
  0.00000000E+00  0.00000000E+00  0.00000000E+00
  0.00000000E+00  0.00000000E+00  0.00000000E+00
  0.00000000E+00  0.00000000E+00  0.00000000E+00
  0.00000000E+00  0.00000000E+00  0.00000000E+00
  0.00000000E+00  0.00000000E+00  0.00000000E+00
  0.00000000E+00  0.00000000E+00  0.00000000E+00
  0.00000000E+00  0.00000000E+00  0.00000000E+00
  0.00000000E+00  0.00000000E+00  0.00000000E+00
  0.00000000E+00  0.00000000E+00  0.00000000E+00
  0.00000000E+00  0.00000000E+00  0.00000000E+00
  0.00000000E+00  0.00000000E+00  0.00000000E+00
  0.00000000E+00  0.00000000E+00  0.00000000E+00
  0.00000000E+00  0.00000000E+00  0.00000000E+00
  0.00000000E+00  0.00000000E+00  0.00000000E+00
  0.00000000E+00  0.00000000E+00  0.00000000E+00
  0.00000000E+00  0.00000000E+00  0.00000000E+00
  0.00000000E+00  0.00000000E+00  0.00000000E+00
  0.00000000E+00  0.00000000E+00  0.00000000E+00
  0.00000000E+00  0.00000000E+00  0.00000000E+00
  0.00000000E+00  0.00000000E+00  0.00000000E+00
  0.00000000E+00  0.00000000E+00  0.00000000E+00
  0.00000000E+00  0.00000000E+00  0.00000000E+00
  0.00000000E+00  0.00000000E+00  0.00000000E+00
  0.00000000E+00  0.00000000E+00  0.00000000E+00
  0.00000000E+00  0.00000000E+00  0.00000000E+00
  0.00000000E+00  0.00000000E+00  0.00000000E+00
  0.00000000E+00  0.00000000E+00  0.00000000E+00
  0.00000000E+00  0.00000000E+00  0.00000000E+00
  0.00000000E+00  0.00000000E+00  0.00000000E+00
  0.00000000E+00  0.00000000E+00  0.00000000E+00
  0.00000000E+00  0.00000000E+00  0.00000000E+00
  0.00000000E+00  0.00000000E+00  0.00000000E+00
  0.00000000E+00  0.00000000E+00  0.00000000E+00
  0.00000000E+00  0.00000000E+00  0.00000000E+00
  0.00000000E+00  0.00000000E+00  0.00000000E+00
  0.00000000E+00  0.00000000E+00  0.00000000E+00
  0.00000000E+00  0.00000000E+00  0.00000000E+00
  0.00000000E+00  0.00000000E+00  0.00000000E+00
  0.00000000E+00  0.00000000E+00  0.00000000E+00
  0.00000000E+00  0.00000000E+00  0.00000000E+00
  0.00000000E+00  0.00000000E+00  0.00000000E+00
  0.00000000E+00  0.00000000E+00  0.00000000E+00
  0.00000000E+00  0.00000000E+00  0.00000000E+00
  0.00000000E+00  0.00000000E+00  0.00000000E+00
  0.00000000E+00  0.00000000E+00  0.00000000E+00
  0.00000000E+00  0.00000000E+00  0.00000000E+00
  0.00000000E+00  0.00000000E+00  0.00000000E+00
  0.00000000E+00  0.00000000E+00  0.00000000E+00
  0.00000000E+00  0.00000000E+00  0.00000000E+00
  0.00000000E+00  0.00000000E+00  0.00000000E+00
  0.00000000E+00  0.00000000E+00  0.00000000E+00
  0.00000000E+00  0.00000000E+00  0.00000000E+00
  0.00000000E+00  0.00000000E+00  0.00000000E+00
  0.00000000E+00  0.00000000E+00  0.00000000E+00
  0.00000000E+00  0.00000000E+00  0.00000000E+00
  0.00000000E+00  0.00000000E+00  0.00000000E+00
  0.00000000E+00  0.00000000E+00  0.00000000E+00
  0.00000000E+00  0.00000000E+00  0.00000000E+00
  0.00000000E+00  0.00000000E+00  0.00000000E+00
  0.00000000E+00  0.00000000E+00  0.00000000E+00
  0.00000000E+00  0.00000000E+00  0.00000000E+00
  0.00000000E+00  0.00000000E+00  0.00000000E+00
  0.00000000E+00  0.00000000E+00  0.00000000E+00
  0.00000000E+00  0.00000000E+00  0.00000000E+00
  0.00000000E+00  0.00000000E+00  0.00000000E+00
  0.00000000E+00  0.00000000E+00  0.00000000E+00
  0.00000000E+00  0.00000000E+00  0.00000000E+00
  0.00000000E+00  0.00000000E+00  0.00000000E+00
  0.00000000E+00  0.00000000E+00  0.00000000E+00
  0.00000000E+00  0.00000000E+00  0.00000000E+00
  0.00000000E+00  0.00000000E+00  0.00000000E+00
  0.00000000E+00  0.00000000E+00  0.00000000E+00
  0.00000000E+00  0.00000000E+00  0.00000000E+00
  0.00000000E+00  0.00000000E+00  0.00000000E+00
  0.00000000E+00  0.00000000E+00  0.00000000E+00
  0.00000000E+00  0.00000000E+00  0.00000000E+00
  0.00000000E+00  0.00000000E+00  0.00000000E+00
  0.00000000E+00  0.00000000E+00  0.00000000E+00
  0.00000000E+00  0.00000000E+00  0.00000000E+00
  0.00000000E+00  0.00000000E+00  0.00000000E+00
  0.00000000E+00  0.00000000E+00  0.00000000E+00
  0.00000000E+00  0.00000000E+00  0.00000000E+00
  0.00000000E+00  0.00000000E+00  0.00000000E+00
  0.00000000E+00  0.00000000E+00  0.00000000E+00
  0.00000000E+00  0.00000000E+00  0.00000000E+00
  0.00000000E+00  0.00000000E+00  0.00000000E+00
  0.00000000E+00  0.00000000E+00  0.00000000E+00
  0.00000000E+00  0.00000000E+00  0.00000000E+00
  0.00000000E+00  0.00000000E+00  0.00000000E+00
  0.00000000E+00  0.00000000E+00  0.00000000E+00
  0.00000000E+00  0.00000000E+00  0.00000000E+00
  0.00000000E+00  0.00000000E+00  0.00000000E+00
  0.00000000E+00  0.00000000E+00  0.00000000E+00
  0.00000000E+00  0.00000000E+00  0.00000000E+00
  0.00000000E+00  0.00000000E+00  0.00000000E+00
  0.00000000E+00  0.00000000E+00  0.00000000E+00
  0.00000000E+00  0.00000000E+00  0.00000000E+00
  0.00000000E+00  0.00000000E+00  0.00000000E+00
  0.00000000E+00  0.00000000E+00  0.00000000E+00
  0.00000000E+00  0.00000000E+00  0.00000000E+00
  0.00000000E+00  0.00000000E+00  0.00000000E+00
  0.00000000E+00  0.00000000E+00  0.00000000E+00
  0.00000000E+00  0.00000000E+00  0.00000000E+00
  0.00000000E+00  0.00000000E+00  0.00000000E+00
  0.00000000E+00  0.00000000E+00  0.00000000E+00
  0.00000000E+00  0.00000000E+00  0.00000000E+00
  0.00000000E+00  0.00000000E+00  0.00000000E+00
  0.00000000E+00  0.00000000E+00  0.00000000E+00
  0.00000000E+00  0.00000000E+00  0.00000000E+00
  0.00000000E+00  0.00000000E+00  0.00000000E+00
  0.00000000E+00  0.00000000E+00  0.00000000E+00
  0.00000000E+00  0.00000000E+00  0.00000000E+00
  0.00000000E+00  0.00000000E+00  0.00000000E+00
  0.00000000E+00  0.00000000E+00  0.00000000E+00
  0.00000000E+00  0.00000000E+00  0.00000000E+00
  0.00000000E+00  0.00000000E+00  0.00000000E+00
  0.00000000E+00  0.00000000E+00  0.00000000E+00
  0.00000000E+00  0.00000000E+00  0.00000000E+00
  0.00000000E+00  0.00000000E+00  0.00000000E+00
