AluminumNitride
   1.00000000000000
   13.014     0.0      0.0
   0.0     15.0272728065      0.0
   0.0      0.0     39.739723346
  Al  N 
 36  36   
Cartesian 
0.0	0.0	0 
0.0	2.50454546774	0 
0.0	5.00909093549	0 
0.0	7.51363640323	0 
0.0	10.018181871	0 
0.0	12.5227273387	0 
2.169	1.25227273387	0 
2.169	3.75681820162	0 
2.169	6.26136366936	0 
2.169	8.76590913711	0 
2.169	11.2704546049	0 
2.169	13.7750000726	0 
4.338	0.0	0 
4.338	2.50454546774	0 
4.338	5.00909093549	0 
4.338	7.51363640323	0 
4.338	10.018181871	0 
4.338	12.5227273387	0 
6.507	1.25227273387	0 
6.507	3.75681820162	0 
6.507	6.26136366936	0 
6.507	8.76590913711	0 
6.507	11.2704546049	0 
6.507	13.7750000726	0 
8.676	0.0	0 
8.676	2.50454546774	0 
8.676	5.00909093549	0 
8.676	7.51363640323	0 
8.676	10.018181871	0 
8.676	12.5227273387	0 
10.845	1.25227273387	0 
10.845	3.75681820162	0 
10.845	6.26136366936	0 
10.845	8.76590913711	0 
10.845	11.2704546049	0 
10.845	13.7750000726	0 
1.446	0.0	0 
1.446	2.50454546774	0 
1.446	5.00909093549	0 
1.446	7.51363640323	0 
1.446	10.018181871	0 
1.446	12.5227273387	0 
3.615	1.25227273387	0 
3.615	3.75681820162	0 
3.615	6.26136366936	0 
3.615	8.76590913711	0 
3.615	11.2704546049	0 
3.615	13.7750000726	0 
5.784	0.0	0 
5.784	2.50454546774	0 
5.784	5.00909093549	0 
5.784	7.51363640323	0 
5.784	10.018181871	0 
5.784	12.5227273387	0 
7.953	1.25227273387	0 
7.953	3.75681820162	0 
7.953	6.26136366936	0 
7.953	8.76590913711	0 
7.953	11.2704546049	0 
7.953	13.7750000726	0 
10.122	0.0	0 
10.122	2.50454546774	0 
10.122	5.00909093549	0 
10.122	7.51363640323	0 
10.122	10.018181871	0 
10.122	12.5227273387	0 
12.291	1.25227273387	0 
12.291	3.75681820162	0 
12.291	6.26136366936	0 
12.291	8.76590913711	0 
12.291	11.2704546049	0 
12.291	13.7750000726	0 
