SHEET                                   
   1.00000000000000     
    17.3520000000000003    0.0000000000000000    0.0000000000000000
     0.0000000000000000   15.0272728064999992    0.0000000000000000
     0.0000000000000000    0.0000000000000000   10.6393173196999999
   B    N 
    47    48
Direct
 -0.0000097222012579  0.0000000030717221  0.0000000013078342
 -0.0000090911129712  0.1666244852164911  0.0000000021370879
  0.0000139554976953  0.3333648878699525  0.0000000061723255
  0.0000282803829052  0.4999999997338376 -0.0000000016372426
  0.0000139474394213  0.6666351131253163 -0.0000000039559014
 -0.0000090974855158  0.8333755232903535 -0.0000000011373854
  0.1249931963805065  0.0833662501163069  0.0000000005949990
  0.1249673741644925  0.2500446125054461  0.0000000016425878
  0.1250556024577821  0.4166373158498294  0.0000000026482775
  0.1250555870155385  0.5833626794829733 -0.0000000010728036
  0.1249673729545009  0.7499553900532657 -0.0000000029152804
  0.1249931952867060  0.9166337638229144 -0.0000000008340220
  0.2499965884794498  0.0000000065554263 -0.0000000016055583
  0.2499911453044929  0.1666315011251155  0.0000000026869045
  0.2498887450227304  0.3336275424265965  0.0000000013495319
  0.2503069937015150  0.4999999883274046  0.0000000043043622
  0.2498887570899028  0.6663724738458623 -0.0000000014799229
  0.2499911372152639  0.8333685129173536 -0.0000000010108220
  0.3750035397624946  0.0833649726191447 -0.0000000001712472
  0.3750207024851928  0.2500443165468770 -0.0000000012566633
  0.3760164162525436  0.4184634297209472 -0.0000000004920947
  0.3760164906993689  0.5815366535624856 -0.0000000024417942
  0.3750206996400751  0.7499556780380598 -0.0000000004018540
  0.3750035413943864  0.9166350510168696 -0.0000000002310836
  0.5001042845278290  0.0000000111659929  0.0000000002098054
  0.5002579739812141  0.1666579247819670  0.0000000003040204
  0.5008581698359218  0.3353020231353872 -0.0000000015629921
  0.5008580568574370  0.6646979410881396 -0.0000000036980493
  0.5002579536265490  0.8333420756186939 -0.0000000014980595
  0.6249877414703899  0.0834101098508361  0.0000000017549279
  0.6248544171390383  0.2502986600241069  0.0000000002392512
  0.6231297757954192  0.4167328788520714  0.0000000011471666
  0.6231297776972140  0.5832671080068796 -0.0000000005886773
  0.6248544365478117  0.7497013583357350 -0.0000000018476941
  0.6249877464524344  0.9165899270059900 -0.0000000010533364
  0.7499832423574297  0.0000000174558645  0.0000000009635703
  0.7499714571858074  0.1666709251716005  0.0000000032438536
  0.7498703860521276  0.3331233013592459 -0.0000000002420262
  0.7499640988744680  0.4999999932542999  0.0000000006949992
  0.7498703837518238  0.6668767009289563 -0.0000000000356166
  0.7499714643012919  0.8333290868116414 -0.0000000033483548
  0.8749917214788193  0.0833621479109384  0.0000000017407711
  0.8749834666030503  0.2499421016597386  0.0000000018734308
  0.8750180384149965  0.4166189948158622  0.0000000007231335
  0.8750180354620332  0.5833810065458219  0.0000000002335687
  0.8749834699465580  0.7500579043638287 -0.0000000028476050
  0.8749917210298522  0.9166378565202173  0.0000000005644600
  0.0833471697967099  0.0000000001325900 -0.0000000006289891
  0.0833489236656583  0.1667055173336677  0.0000000088760154
  0.0833206629763026  0.3332615363115603  0.0000000058353402
  0.0833012203858066  0.5000000072056787 -0.0000000002510219
  0.0833206704822805  0.6667384555366995 -0.0000000105248258
  0.0833489251976604  0.8332945067087132 -0.0000000015564196
  0.2083397774262097  0.0832893419552182 -0.0000000007736880
  0.2084222488564058  0.2499439029364730  0.0000000019830319
  0.2082511667396278  0.4165824381824819  0.0000000028842425
  0.2082511785271252  0.5834175804786946 -0.0000000082355865
  0.2084222616072078  0.7500560682905945 -0.0000000019783021
  0.2083397756258899  0.9167106762644157 -0.0000000033339747
  0.3333342224311225 -0.0000000028844572 -0.0000000045211441
  0.3333233483286265  0.1666872985989682  0.0000000076188609
  0.3335199323274693  0.3326949026037633  0.0000000048469568
  0.3326081845646825  0.5000000427627405  0.0000000078732414
  0.3335199276388508  0.6673050539878518 -0.0000000015546676
  0.3333233655468721  0.8333126858130276 -0.0000000028100884
  0.4582322277116025  0.0833352878777507  0.0000000057459753
  0.4577975706799368  0.2498851244242025 -0.0000000091863490
  0.4574476911763664  0.4149269291694406 -0.0000000033213899
  0.4574476852512267  0.5850729518938900 -0.0000000051618160
  0.4577976215862156  0.7501148645414150 -0.0000000039529156
  0.4582322362914462  0.9166646899314278  0.0000000014646346
  0.5832949365542274 -0.0000000035611494 -0.0000000038592465
  0.5832675018781243  0.1665781160593408  0.0000000043019027
  0.5836942015015736  0.3325641322966848 -0.0000000002150650
  0.5851010805970353  0.4999999351901456  0.0000000060570035
  0.5836941567069234  0.6674358588056024 -0.0000000043594696
  0.5832674772732387  0.8334218637618712 -0.0000000003895398
  0.7083387688874069  0.0832717537634611  0.0000000030318133
  0.7084634538078197  0.2499925403948419  0.0000000006416548
  0.7086758305364703  0.4171951208799152  0.0000000003459732
  0.7086758194544565  0.5828048878730780  0.0000000004152195
  0.7084634312087950  0.7500074379686774  0.0000000034149984
  0.7083387554576804  0.9167282508721202 -0.0000000077746180
  0.8333540245694725  0.0000000052979471  0.0000000065262446
  0.8333543043581052  0.1667245009332314  0.0000000030530177
  0.8333220993298990  0.3334045166345466  0.0000000035662115
  0.8333469868590672  0.5000000069900049 -0.0000000073138530
  0.8333221094453133  0.6665954856024440 -0.0000000009988356
  0.8333543223987960  0.8332755039560491 -0.0000000016993612
  0.9583416199218757  0.0832936467475795  0.0000000020861032
  0.9583321500732931  0.2500175642419640  0.0000000052437724
  0.9583110260209632  0.4167116614474523  0.0000000037930122
  0.9583110254224508  0.5832883448614756  0.0000000024662163
  0.9583321278066973  0.7499824354622601 -0.0000000093438642
  0.9583416178923907  0.9167063678913744  0.0000000025028064
 
  0.00000000E+00  0.00000000E+00  0.00000000E+00
  0.00000000E+00  0.00000000E+00  0.00000000E+00
  0.00000000E+00  0.00000000E+00  0.00000000E+00
  0.00000000E+00  0.00000000E+00  0.00000000E+00
  0.00000000E+00  0.00000000E+00  0.00000000E+00
  0.00000000E+00  0.00000000E+00  0.00000000E+00
  0.00000000E+00  0.00000000E+00  0.00000000E+00
  0.00000000E+00  0.00000000E+00  0.00000000E+00
  0.00000000E+00  0.00000000E+00  0.00000000E+00
  0.00000000E+00  0.00000000E+00  0.00000000E+00
  0.00000000E+00  0.00000000E+00  0.00000000E+00
  0.00000000E+00  0.00000000E+00  0.00000000E+00
  0.00000000E+00  0.00000000E+00  0.00000000E+00
  0.00000000E+00  0.00000000E+00  0.00000000E+00
  0.00000000E+00  0.00000000E+00  0.00000000E+00
  0.00000000E+00  0.00000000E+00  0.00000000E+00
  0.00000000E+00  0.00000000E+00  0.00000000E+00
  0.00000000E+00  0.00000000E+00  0.00000000E+00
  0.00000000E+00  0.00000000E+00  0.00000000E+00
  0.00000000E+00  0.00000000E+00  0.00000000E+00
  0.00000000E+00  0.00000000E+00  0.00000000E+00
  0.00000000E+00  0.00000000E+00  0.00000000E+00
  0.00000000E+00  0.00000000E+00  0.00000000E+00
  0.00000000E+00  0.00000000E+00  0.00000000E+00
  0.00000000E+00  0.00000000E+00  0.00000000E+00
  0.00000000E+00  0.00000000E+00  0.00000000E+00
  0.00000000E+00  0.00000000E+00  0.00000000E+00
  0.00000000E+00  0.00000000E+00  0.00000000E+00
  0.00000000E+00  0.00000000E+00  0.00000000E+00
  0.00000000E+00  0.00000000E+00  0.00000000E+00
  0.00000000E+00  0.00000000E+00  0.00000000E+00
  0.00000000E+00  0.00000000E+00  0.00000000E+00
  0.00000000E+00  0.00000000E+00  0.00000000E+00
  0.00000000E+00  0.00000000E+00  0.00000000E+00
  0.00000000E+00  0.00000000E+00  0.00000000E+00
  0.00000000E+00  0.00000000E+00  0.00000000E+00
  0.00000000E+00  0.00000000E+00  0.00000000E+00
  0.00000000E+00  0.00000000E+00  0.00000000E+00
  0.00000000E+00  0.00000000E+00  0.00000000E+00
  0.00000000E+00  0.00000000E+00  0.00000000E+00
  0.00000000E+00  0.00000000E+00  0.00000000E+00
  0.00000000E+00  0.00000000E+00  0.00000000E+00
  0.00000000E+00  0.00000000E+00  0.00000000E+00
  0.00000000E+00  0.00000000E+00  0.00000000E+00
  0.00000000E+00  0.00000000E+00  0.00000000E+00
  0.00000000E+00  0.00000000E+00  0.00000000E+00
  0.00000000E+00  0.00000000E+00  0.00000000E+00
  0.00000000E+00  0.00000000E+00  0.00000000E+00
  0.00000000E+00  0.00000000E+00  0.00000000E+00
  0.00000000E+00  0.00000000E+00  0.00000000E+00
  0.00000000E+00  0.00000000E+00  0.00000000E+00
  0.00000000E+00  0.00000000E+00  0.00000000E+00
  0.00000000E+00  0.00000000E+00  0.00000000E+00
  0.00000000E+00  0.00000000E+00  0.00000000E+00
  0.00000000E+00  0.00000000E+00  0.00000000E+00
  0.00000000E+00  0.00000000E+00  0.00000000E+00
  0.00000000E+00  0.00000000E+00  0.00000000E+00
  0.00000000E+00  0.00000000E+00  0.00000000E+00
  0.00000000E+00  0.00000000E+00  0.00000000E+00
  0.00000000E+00  0.00000000E+00  0.00000000E+00
  0.00000000E+00  0.00000000E+00  0.00000000E+00
  0.00000000E+00  0.00000000E+00  0.00000000E+00
  0.00000000E+00  0.00000000E+00  0.00000000E+00
  0.00000000E+00  0.00000000E+00  0.00000000E+00
  0.00000000E+00  0.00000000E+00  0.00000000E+00
  0.00000000E+00  0.00000000E+00  0.00000000E+00
  0.00000000E+00  0.00000000E+00  0.00000000E+00
  0.00000000E+00  0.00000000E+00  0.00000000E+00
  0.00000000E+00  0.00000000E+00  0.00000000E+00
  0.00000000E+00  0.00000000E+00  0.00000000E+00
  0.00000000E+00  0.00000000E+00  0.00000000E+00
  0.00000000E+00  0.00000000E+00  0.00000000E+00
  0.00000000E+00  0.00000000E+00  0.00000000E+00
  0.00000000E+00  0.00000000E+00  0.00000000E+00
  0.00000000E+00  0.00000000E+00  0.00000000E+00
  0.00000000E+00  0.00000000E+00  0.00000000E+00
  0.00000000E+00  0.00000000E+00  0.00000000E+00
  0.00000000E+00  0.00000000E+00  0.00000000E+00
  0.00000000E+00  0.00000000E+00  0.00000000E+00
  0.00000000E+00  0.00000000E+00  0.00000000E+00
  0.00000000E+00  0.00000000E+00  0.00000000E+00
  0.00000000E+00  0.00000000E+00  0.00000000E+00
  0.00000000E+00  0.00000000E+00  0.00000000E+00
  0.00000000E+00  0.00000000E+00  0.00000000E+00
  0.00000000E+00  0.00000000E+00  0.00000000E+00
  0.00000000E+00  0.00000000E+00  0.00000000E+00
  0.00000000E+00  0.00000000E+00  0.00000000E+00
  0.00000000E+00  0.00000000E+00  0.00000000E+00
  0.00000000E+00  0.00000000E+00  0.00000000E+00
  0.00000000E+00  0.00000000E+00  0.00000000E+00
  0.00000000E+00  0.00000000E+00  0.00000000E+00
  0.00000000E+00  0.00000000E+00  0.00000000E+00
  0.00000000E+00  0.00000000E+00  0.00000000E+00
  0.00000000E+00  0.00000000E+00  0.00000000E+00
  0.00000000E+00  0.00000000E+00  0.00000000E+00
