undoped                            
   1.00000000000000     
    17.3520000000000003    0.0000000000000000    0.0000000000000000
     0.0000000000000000   15.0272728064999992    0.0000000000000000
     0.0000000000000000    0.0000000000000000   10.6393173196999999
   B    N    Al
    48    48   128
Direct
  0.9849839219614094  0.0005118310189125  0.0061461881826359
  0.9842942047502808  0.1642239931057640  0.0054734339982768
  0.9794609834394324  0.3309522702742019  0.0277115225631101
  0.9843262181171287  0.5041504510014536  0.9892711025690141
  0.9861942221792770  0.6702614478549890  0.9924654183253723
  0.9892061870916560  0.8317716727528628  0.9988142505390001
  0.1092827437775877  0.0802948254291145  0.9574900483588974
  0.1109685558187028  0.2393902457430354  0.0364905915908662
  0.1051665589070850  0.4119841083188917  0.0237033838938124
  0.1077537440084811  0.5815841074700898  0.9842092898440363
  0.1116485529954804  0.7504529423226244  0.0245049057655451
  0.1119278123848857  0.9154461559073661  0.0015559822153314
  0.2326672818624683  0.9937892471388717  0.9844444077816455
  0.2348571561987395  0.1566872252090628  0.0639702359634143
  0.2300846701348757  0.3238547281734856  0.9919737589190977
  0.2320775287997265  0.4930613965348213  0.9848774263971618
  0.2318815446405170  0.6615377590268314  0.9839517184498427
  0.2342243223381158  0.8297709474598075  0.9914121696562901
  0.3570341231889840  0.0838303758527417  0.0113929856445007
  0.3537332696741320  0.2493646412408245  0.9647528671456179
  0.3559941226868203  0.4143646871280947  0.0007777796848177
  0.3567904794769652  0.5811569749421738  0.0499949372011961
  0.3581612655665816  0.7469145103626996  0.9921343871627277
  0.3557411266285571  0.9148422438757092  0.9899906570112513
  0.4786573938186817  0.9981528642243279  0.0154109911423658
  0.4842512128181125  0.1675649222047219  0.9552439791500714
  0.4787923387329678  0.3346719937014588  0.9926041951460175
  0.4832472637430958  0.4973735627703729  0.9861372530058221
  0.4860217261004560  0.6596941515645407  0.9851155463613075
  0.4770323980674510  0.8289840708446621  0.0066813638785379
  0.6022222507972864  0.0876732207685540  0.0228969257433475
  0.6026462032947034  0.2551419086618366  0.9822796433005212
  0.6054433884092465  0.4178656973687196  0.9879844545445945
  0.6132539535194628  0.5784616757004274  0.9394180598290583
  0.6049652161430150  0.7436683786905602  0.0249763923928681
  0.6057527329211185  0.9122232251280469  0.0155889619472156
  0.7318668760733271  0.0050193465223305  0.0157286672483000
  0.7341923616503735  0.1673110114768840  0.0550506504802276
  0.7320484077062300  0.3324774925856062  0.0315268792713102
  0.7360474888638722  0.5040673390879505  0.0215911068172796
  0.7376248967438926  0.6692062853657472  0.0233127020988543
  0.7333276043192499  0.8343360726981947  0.9686856542610951
  0.8572854465234904  0.0799139918687297  0.0181329751577869
  0.8580200573015678  0.2469212279509581  0.9870615399499194
  0.8591077142633917  0.4176505448081073  0.0102513514258177
  0.8631162712781896  0.5863748740813820  0.0081023923614071
  0.8614489971876154  0.7523047204837666  0.9858732463562352
  0.8600385981605789  0.9172325789298712  0.0364997209458666
  0.0682662505192967  0.9961455648072725  0.9798284740730516
  0.0682035235987115  0.1575092385659673  0.0160395951131987
  0.0656686580216116  0.3267709868600592  0.0460541774512550
  0.0661642063528833  0.4993074125220098  0.9915433740824486
  0.0693354397553967  0.6700781032641445  0.9918649041248176
  0.0712838503535815  0.8312575427249763  0.0167353659616259
  0.1950761741476728  0.0795373755793936  0.9722696548385710
  0.1943536966595612  0.2405129738545347  0.0212857434799251
  0.1886746129828847  0.4090259575372169  0.0234653302237943
  0.1893169341607440  0.5775678706820858  0.9595306649557903
  0.1924704499871048  0.7477072849087103  0.9804787282253803
  0.1945362372004534  0.9117517436127903  0.0129505402969494
  0.3167575011077395  0.9989849679674181  0.9902190783636373
  0.3185970534305145  0.1681709351042640  0.0320733575966844
  0.3165925749676350  0.3315997703552301  0.0178836892403521
  0.3156526670091874  0.4966544270897014  0.0177873020614446
  0.3159980533118028  0.6661051163035046  0.0038215397043127
  0.3169080020908865  0.8327394629556815  0.9813249545794526
  0.4414184028803418  0.0838112401143223  0.9809443299901739
  0.4389361681669829  0.2523088850598518  0.9810165422398200
  0.4357664163513055  0.4162983033889566  0.9828894519065730
  0.4462083017827424  0.5777273329332852  0.0256769078018637
  0.4398426141625055  0.7431749235252755  0.0090490577878632
  0.4365327317265895  0.9122670444880741  0.9965437036606057
  0.5648350255346737  0.9986293771768965  0.0019574704425652
  0.5691104949909458  0.1683328717327984  0.9573350164178704
  0.5617950821560098  0.3364226238801874  0.0081725931724525
  0.5653892978143086  0.5008697033610413  0.9852249115463075
  0.5657109744110241  0.6635919500984246  0.9501333284944481
  0.5609627981962385  0.8283664882177958  0.9780871359667024
  0.6891012666315176  0.0819587405050535  0.0493995489749670
  0.6868245269537595  0.2480781867814396  0.9980668064766439
  0.6904300193074244  0.4204139077702891  0.0006654029927417
  0.6956570655808033  0.5865248870197988  0.9991662600954229
  0.6920109360220014  0.7538132433982874  0.9915140565086525
  0.6904140176505775  0.9184511747974354  0.9769977040932485
  0.8155552675730479  0.0012166470597651  0.0284657743657700
  0.8154380197842989  0.1638481227501490  0.0082018014674107
  0.8205424358404108  0.3291571820087104  0.0238612851054808
  0.8202623507484557  0.5024210448601770  0.0311173840307028
  0.8222815290397856  0.6706857930673557  0.0215883583050716
  0.8132847474762571  0.8373408761783044  0.0148321659216786
  0.9409294905672568  0.0816674543019641  0.9938149435501865
  0.9398280433479697  0.2482238399057455  0.9891568530758847
  0.9437852026012046  0.4193873420861666  0.9891631992174897
  0.9442074092088973  0.5876380139851692  0.9733815751182932
  0.9442046909953526  0.7532137871394347  0.0215582582483816
  0.9440323250739070  0.9144977257009483  0.9781429376121924
  0.0715168109605690  0.0245301561264820  0.7417094478125967
  0.1230694220167317  0.3833139450659410  0.3566537671447153
  0.5364811499394868  0.2147925561679371  0.7096594376328919
  0.6505371787943981  0.8941554937463254  0.2324205459740789
  0.6991655054972413  0.2720593965178673  0.7837438871344782
  0.0088824168658332  0.2009791531981782  0.7031486747759391
  0.5683439884898379  0.8226055419664268  0.4469502406678791
  0.3617288088348775  0.1455150858971954  0.7282047583692828
  0.9233673833892668  0.0535918443768947  0.7195946545459662
  0.7871711291665100  0.1561007031740411  0.2853094513491959
  0.4383163217113942  0.5539197823198970  0.7294775414285749
  0.0588142165175260  0.7510147972934338  0.5188246902777774
  0.9072410678536739  0.5379403247970920  0.7021985054123935
  0.1742163778000704  0.5543189003967554  0.2466317888270475
  0.4684277813570030  0.6021671671702494  0.2148297916196222
  0.8103994012635420  0.3949528990977680  0.7145760478335742
  0.6081755896205381  0.4176142534878217  0.3410911615415666
  0.6594992241394794  0.9487610803636480  0.8192811885647807
  0.9414488733605033  0.8133599956136223  0.3740210222654548
  0.2214316902607979  0.3403118130087099  0.5787919401976912
  0.4175544417952156  0.7144609932205351  0.7467031429785965
  0.1939749550693244  0.9420388288367848  0.6550443896277510
  0.6821706619324612  0.4406229703286957  0.8116869060163838
  0.0514722969778920  0.6941250314105978  0.2929524736216174
  0.8275542914204893  0.8320348193009324  0.7743724579430572
  0.5643222288508816  0.5910213680145249  0.3727782244564737
  0.7556528889121977  0.5569559136863368  0.7000522720909187
  0.3198709730933778  0.1910196478167264  0.2313395848123043
  0.3464181521781676  0.2669540235061044  0.5780524761615786
  0.4424163808177211  0.0474962546837706  0.5401639249275356
  0.5613509507174589  0.3744338226548046  0.7680557187166380
  0.5488225367725367  0.2663799112672810  0.3037973599186929
  0.9222941880037593  0.9605206105002490  0.2384543409998617
  0.7260464705981630  0.8206666946051840  0.3719084676526750
  0.2848517374546347  0.4466183952229514  0.7484174109458508
  0.4632870669680785  0.7509461700038650  0.3297013263409299
  0.8447732915032289  0.0460260127079911  0.4520995116600249
  0.4880476321918505  0.3099356303991209  0.5105219939554811
  0.4279216603030375  0.3276686272945820  0.7591180599884025
  0.5086336333529161  0.6834658392163850  0.5683844579004360
  0.8657564161683868  0.3123539653001957  0.2050457809303227
  0.4947762324835744  0.0938831715846119  0.2495356889505958
  0.4343061754775417  0.8886332725309894  0.7228664021462474
  0.9473594378021557  0.7688077476968882  0.6379920056690324
  0.8438864929204326  0.6795022153600562  0.7766511677509131
  0.9223946545854551  0.2393021111024274  0.4634292861634197
  0.8010743411641064  0.1299439163456769  0.8157948677841882
  0.5637132405443991  0.9923673812158811  0.4124295944890072
  0.6963667227008510  0.8271507918879398  0.6451387164228513
  0.1767468490867858  0.5660458928890717  0.7304400079166214
  0.7941222534204195  0.9813378573843597  0.6995022094831068
  0.5871236763726586  0.7354502546460474  0.2299657400330766
  0.4945831290226853  0.9260126423781438  0.2044642177252838
  0.2949140475528253  0.6422791622725875  0.6724329873449507
  0.4768818357648094  0.0635512844749265  0.7729915628006028
  0.3324656677721696  0.8541742277113664  0.2787662672949902
  0.7411845653872996  0.1783267876386908  0.5300681760481729
  0.4648645216858680  0.4405157728612535  0.3250832069565014
  0.7043705994392427  0.0034527122536680  0.5099056659767800
  0.5449669678406578  0.7813312326575486  0.7669702256349350
  0.6517434105264361  0.1069660026797255  0.2819106706127063
  0.2167434390947519  0.1215844268773612  0.7890780193792262
  0.9284354734201813  0.1573123449782097  0.2552907114587595
  0.9568581471058579  0.6249130491498057  0.4862669631081356
  0.0740633811630756  0.8649404591021025  0.3367265585857143
  0.6862437267196679  0.4670212279533286  0.5454721116005021
  0.2451119049944334  0.3716146884578865  0.1993673359532522
  0.5957145436733988  0.6092245705449834  0.7250985392729802
  0.6774551252348987  0.6478435698561877  0.5270231913576822
  0.2803716938283839  0.0973680161826361  0.5330402102588120
  0.8145022457096827  0.7120069249469558  0.5418925114830641
  0.0372945474907627  0.6465953882251916  0.7624047504638209
  0.4113659089519818  0.5884260054421349  0.4483284315968204
  0.0054117361124788  0.9256585636930458  0.5600107527518181
  0.4128121140700684  0.1854966094635876  0.3993189967892066
  0.2905040683551426  0.8161729941304053  0.7066867604963610
  0.7412703658691225  0.4568605990105170  0.2434688266937150
  0.0793412241782568  0.2173490646669886  0.2980548277117922
  0.1356399178554012  0.1495532225947381  0.5746227026427737
  0.6670980456568073  0.0967598878964976  0.7297403093988769
  0.0314573927252649  0.5349408329437824  0.2219704719653599
  0.7403801112419039  0.6702172187109723  0.2821620010180418
  0.9500010404242334  0.3694904261141380  0.8050433900087605
  0.2694744936448127  0.2841012379032208  0.7777454436745400
  0.7906029926768716  0.3569527685892864  0.4670378726674914
  0.2022528379776875  0.8122046653511268  0.4898969916903710
  0.3323743814380836  0.3585741788861382  0.4060160447315166
  0.7001313320862406  0.7179339584054618  0.8078225289065362
  0.5327567668352383  0.4874358933126396  0.5620361541193314
  0.6961542735537679  0.2952670735280810  0.2389202546618570
  0.5638148829281456  0.9255224125476937  0.6537960052988467
  0.9822159361577607  0.3656267867330664  0.3258037470012849
  0.8632147417920343  0.2484575140674408  0.6803680098483227
  0.9186094506236386  0.4248440711714460  0.5119241771513160
  0.0529333179633418  0.3127439225624219  0.5337280058460092
  0.2107976860836052  0.2380290977651147  0.3805013657986128
  0.3627488771182056  0.7516068135419726  0.5159061537343490
  0.3226786984512839  0.9801566620916010  0.7300781247943854
  0.5830627305421383  0.1433647539059881  0.4861226675864873
  0.2430214020686275  0.6512633613703871  0.4309651847711039
  0.8510093116723760  0.8801992061132816  0.5190281201493019
  0.1641121291082584  0.7179702214317275  0.6589679745440368
  0.8298927809208004  0.8224787485481889  0.2104262944822512
  0.7943109496060179  0.5520423187775381  0.4573340521504256
  0.0720698780135417  0.8557960538038015  0.7340613976837251
  0.6465907319634674  0.5849234125733559  0.1804039600027449
  0.3932539697699851  0.4495930465709954  0.5843230905387805
  0.3291571020569000  0.6900736843438825  0.2214553740130929
  0.9434584419220139  0.9153520238972978  0.8087634187575465
  0.3475050064979280  0.0314186405561818  0.2777492420577212
  0.1068819450853228  0.5469312413832673  0.4527488339114651
  0.2079046767173461  0.9335152089197645  0.2957803726679962
  0.7793411536299700  0.9725074950796725  0.2609058348747368
  0.0635384710849256  0.0295534002297295  0.2141364267158731
  0.1871113787722227  0.1087221303041335  0.2237046116765632
  0.8855447106384241  0.5026074202583667  0.2930978535791980
  0.0547600583955869  0.4702986475188819  0.6884058651350312
  0.1053915397676403  0.3276810708418031  0.7688656328972594
  0.3314062920481483  0.5232026985531059  0.2408774270612319
  0.9030701700681470  0.6722092601346583  0.2550038406998094
  0.3069223296777907  0.9522671616540942  0.4751177710808865
  0.1487721438043557  0.0125578578275564  0.4665712823619941
  0.1783099626459329  0.7628839992368285  0.2495818768140499
  0.6342610440492967  0.3180683435258240  0.5480542014227264
  0.0154432875950477  0.0841397870017445  0.4553814373910958
  0.4366915195772146  0.8915234663850498  0.4474463505514777
  0.2638782023640224  0.4949021919791139  0.4783966011028095
  0.4140813233556615  0.3014307805157139  0.1946378235525656
 
  0.27908973E-02 -0.50033867E-02 -0.37362987E-02
  0.30574748E-02 -0.35089818E-02 -0.99264257E-02
  0.85757463E-02 -0.22700207E-02 -0.77701824E-02
 -0.19776823E-02 -0.13789242E-02  0.19333672E-02
 -0.39642687E-04 -0.33404943E-02 -0.81631001E-03
  0.46065381E-03 -0.12175114E-02  0.10438203E-01
 -0.11608326E-02 -0.40563754E-02 -0.11254484E-01
  0.69492490E-02 -0.54301663E-03  0.52402223E-03
 -0.14161052E-02 -0.21945137E-02  0.76970865E-02
  0.25612114E-02 -0.56961053E-02 -0.19681931E-01
 -0.16159697E-02 -0.71187453E-02 -0.99653463E-02
 -0.32064643E-02 -0.35331430E-03  0.15787559E-01
  0.31587128E-02 -0.93929684E-02  0.50394793E-02
 -0.72649245E-02 -0.16680589E-02  0.31832068E-02
 -0.44965363E-02  0.62472666E-03 -0.54028218E-02
  0.85255523E-02  0.28298773E-02 -0.23043216E-02
  0.90069894E-02  0.56649366E-02  0.67913445E-02
 -0.96790583E-03  0.56776209E-02 -0.57512251E-02
  0.25819637E-02  0.80142854E-03 -0.97035240E-02
 -0.84747957E-02  0.58892297E-02 -0.37805863E-02
  0.53852647E-03 -0.19639320E-02  0.71903494E-02
  0.81548996E-02  0.40595047E-02 -0.67237105E-02
 -0.99915860E-03 -0.20869106E-02 -0.13650789E-01
  0.23038013E-02 -0.25076288E-02  0.83992075E-02
  0.45493604E-02  0.36391707E-02  0.11026553E-02
  0.38850068E-02  0.33686526E-02  0.34031081E-03
 -0.71308888E-03  0.10423753E-01  0.10939504E-01
  0.34169542E-02  0.46636223E-02 -0.11103247E-01
 -0.84411082E-02  0.38315981E-02 -0.71884797E-02
  0.18512182E-02 -0.46602187E-02 -0.48540760E-02
 -0.18437660E-02  0.98878810E-02  0.16235234E-01
  0.10679002E-02  0.89693364E-02 -0.13989136E-01
 -0.17058630E-02  0.47380585E-02  0.72711634E-02
  0.95081795E-03 -0.62405737E-02  0.33553701E-02
  0.48934704E-03 -0.36338257E-02  0.88506030E-02
 -0.84566917E-02  0.31264125E-02 -0.52028199E-03
  0.68161209E-03 -0.27495288E-02  0.82206952E-02
  0.33372811E-02  0.10684341E-01 -0.17663316E-02
 -0.33466516E-02  0.93749526E-02 -0.49673068E-02
  0.29190236E-02  0.59106250E-02  0.60881839E-02
  0.28831653E-02  0.70725802E-02 -0.11342380E-01
  0.25710589E-02 -0.10830491E-02  0.52657685E-02
 -0.12232909E-02  0.73406182E-03 -0.79624383E-03
  0.41882468E-02  0.56056750E-03 -0.12701788E-02
  0.18763799E-02 -0.39019806E-02  0.13644428E-01
  0.30181972E-02 -0.75322365E-02 -0.11014909E-02
  0.68551331E-02  0.15606221E-02  0.53481513E-02
 -0.10110803E-02  0.74949731E-03 -0.30855280E-02
 -0.75746611E-02 -0.92086878E-02 -0.74321754E-02
  0.23244956E-02 -0.23393748E-02  0.16574227E-02
 -0.15507022E-03  0.17033807E-02  0.34932073E-02
  0.40771397E-02 -0.75243342E-02 -0.16314892E-02
  0.41544103E-03 -0.11783753E-01  0.44692812E-02
  0.47857628E-02 -0.18224619E-02  0.93514609E-02
 -0.33981606E-02 -0.55196535E-02  0.14302714E-01
  0.69311507E-03 -0.60888916E-02  0.39967189E-02
 -0.17976553E-02  0.13943846E-02  0.10577143E-02
  0.81745693E-02  0.90188744E-02  0.70629933E-02
  0.36555843E-02  0.72284006E-02  0.16069137E-01
  0.12685886E-02 -0.82225767E-02  0.11853867E-01
  0.46987118E-02  0.26029788E-02  0.71746466E-02
 -0.11829642E-01 -0.37056770E-02  0.78169115E-03
 -0.63757163E-02 -0.79860289E-03 -0.50143462E-02
  0.90386600E-02  0.31503268E-02  0.33249604E-02
  0.97036376E-02  0.22563385E-02 -0.39366642E-02
  0.35966485E-02 -0.82456931E-03  0.26749908E-02
  0.29918933E-02  0.45968342E-02  0.31262426E-02
 -0.37043699E-02  0.22655695E-02  0.62699941E-02
 -0.69564048E-02  0.21191784E-03 -0.16236414E-03
 -0.43966426E-02  0.35560915E-02  0.27889685E-02
 -0.49625262E-02  0.12309879E-02  0.31690256E-02
  0.58322637E-02  0.50039565E-02  0.65865340E-02
  0.28250294E-02  0.38582384E-02  0.19590431E-02
  0.30819160E-03  0.90326351E-02  0.47063263E-02
 -0.46656889E-02  0.93005531E-03 -0.47621498E-02
 -0.12188266E-01  0.40823331E-02 -0.12747477E-01
  0.11689426E-02  0.55494129E-02 -0.82936770E-02
  0.39136853E-02 -0.28763080E-02 -0.71232043E-02
 -0.47118279E-03  0.16355716E-02 -0.44921469E-03
  0.60409145E-03  0.11783870E-01  0.18604695E-03
 -0.31181924E-02  0.61355084E-02  0.12818718E-01
  0.43969452E-02  0.28782771E-03  0.17209810E-02
 -0.95734757E-03  0.29482334E-02  0.42956794E-02
  0.53276700E-02 -0.23328877E-02  0.16051277E-02
  0.59999393E-02  0.15751536E-02 -0.11606724E-01
 -0.56137258E-02 -0.32488452E-03 -0.10856616E-01
 -0.88409508E-03 -0.11549673E-02 -0.15629336E-02
  0.32044150E-02 -0.50206558E-02  0.16124980E-02
 -0.31052587E-02 -0.63286976E-03 -0.96408244E-02
  0.41704656E-02 -0.69364153E-02  0.30940111E-02
 -0.49446668E-02 -0.97571142E-03 -0.23544845E-02
 -0.21954018E-03 -0.21591200E-02  0.62506164E-02
 -0.29642187E-02 -0.53079387E-02  0.14935012E-01
 -0.15503090E-02 -0.11524143E-02  0.17961182E-03
  0.59538404E-03 -0.39143296E-02  0.13079451E-01
  0.59879978E-02  0.59122547E-03  0.49222725E-02
 -0.13752627E-02  0.18276313E-02  0.11672670E-01
  0.75696626E-02  0.10765193E-01 -0.45982933E-02
 -0.33279034E-02 -0.22756403E-02 -0.17135378E-02
  0.46744078E-02  0.74573746E-02 -0.43892439E-02
 -0.14918738E-02 -0.76800159E-02 -0.82811998E-03
  0.10476403E-01  0.12802254E-01  0.28300974E-02
 -0.11965562E-01  0.10073742E-01  0.12282998E-01
 -0.46049496E-02  0.30240438E-02 -0.24299760E-02
  0.65028080E-02  0.60000026E-02  0.15122748E-02
 -0.69790578E-02 -0.50285794E-02  0.79453690E-02
  0.12861816E-01 -0.50370419E-02  0.67334771E-02
 -0.14298174E-02 -0.10874587E-03 -0.27155777E-02
 -0.24115269E-02 -0.16443111E-01 -0.11720026E-02
  0.58483687E-02  0.44619095E-03  0.29921771E-02
  0.51214821E-03 -0.90700665E-02 -0.62610347E-02
  0.13784817E-02  0.33877067E-02  0.10481553E-01
  0.62055803E-02 -0.57862234E-02 -0.51073554E-03
  0.29265467E-02 -0.87243955E-04 -0.72377654E-02
 -0.11669895E-02  0.11752597E-03 -0.34203902E-02
 -0.59125260E-02 -0.24242258E-02 -0.45214067E-02
 -0.67048164E-02 -0.73109222E-02  0.33431066E-03
 -0.24714263E-02  0.16379177E-02  0.23466357E-02
  0.75834856E-02 -0.57920219E-02  0.58184889E-02
  0.81552663E-02  0.35751541E-02  0.10106672E-01
 -0.79120572E-02 -0.84060207E-03 -0.15318157E-02
 -0.28193967E-02 -0.17522792E-01 -0.15383208E-03
 -0.14031526E-02 -0.76764668E-02 -0.11994775E-02
  0.86476573E-02  0.69350231E-02 -0.13259058E-02
 -0.26121766E-02  0.29760460E-02  0.28523078E-02
  0.13739338E-01 -0.73213580E-03  0.23900979E-02
 -0.77028740E-02 -0.98018766E-02  0.17812887E-02
  0.84319738E-03  0.11547650E-01 -0.24418364E-02
 -0.52280729E-02 -0.14183159E-02 -0.18287463E-02
  0.91766717E-03 -0.33216240E-04  0.59602118E-02
  0.52475978E-02  0.60747656E-02  0.43935864E-02
  0.39795116E-02 -0.65638576E-02 -0.10247546E-01
 -0.78011090E-02  0.17805764E-02 -0.36189358E-02
 -0.78237249E-02  0.33850541E-02  0.30093875E-02
  0.43342131E-02  0.57689061E-02  0.18760281E-01
  0.44833705E-03  0.75949244E-02 -0.87863669E-02
 -0.81958878E-02  0.11781569E-02  0.50704777E-02
 -0.38100652E-02  0.14390584E-03 -0.92003634E-02
  0.25393328E-02 -0.38159682E-03 -0.42093897E-02
  0.63619320E-04 -0.77021734E-02  0.77372137E-02
 -0.25888899E-02  0.63657177E-03  0.82848021E-02
 -0.73644749E-02 -0.80023846E-02  0.11308379E-01
 -0.77247660E-02  0.60650217E-02 -0.42750971E-02
  0.10894090E-02  0.28352739E-02  0.64727903E-02
 -0.10445612E-01  0.34380229E-03  0.69110677E-02
  0.10407796E-01 -0.41174662E-02 -0.30239652E-02
 -0.54362624E-02 -0.64319590E-03 -0.10637294E-02
 -0.53118238E-02 -0.49799172E-02  0.12549422E-02
  0.45633361E-03 -0.38370660E-02 -0.80409955E-02
  0.46087370E-02  0.64348473E-02 -0.11977085E-01
  0.58519744E-02  0.55421939E-02 -0.53134501E-02
 -0.36736277E-02 -0.56442879E-03  0.14199052E-02
  0.56878910E-02  0.52260693E-03  0.18918958E-02
 -0.39961698E-02 -0.90370630E-03 -0.57680319E-02
 -0.44217792E-02  0.14409730E-02 -0.81826255E-02
  0.93923289E-02  0.48071027E-02  0.70316850E-02
  0.77596531E-02 -0.91562837E-03  0.23076433E-02
 -0.73500335E-02 -0.97218564E-04 -0.44689138E-02
  0.21961569E-02 -0.36232496E-02 -0.12120653E-01
  0.98046708E-03  0.10875673E-01 -0.98434130E-03
  0.17491801E-02 -0.10002983E-01 -0.74919436E-02
 -0.59370227E-02  0.71262992E-02 -0.81860917E-02
 -0.72541208E-02  0.96251355E-02  0.24465454E-02
 -0.39307301E-02  0.96268277E-03  0.93025355E-02
 -0.32736314E-02 -0.97291010E-02  0.58521751E-02
  0.36684976E-02  0.63760311E-02 -0.50746805E-02
 -0.65546695E-02  0.54612985E-03  0.36369758E-02
  0.10124480E-01  0.70263690E-02  0.26839763E-02
  0.13914389E-02 -0.11772770E-02 -0.62585103E-02
  0.11503515E-02 -0.22070731E-02  0.68986855E-03
  0.51285387E-02  0.22197827E-03  0.13211606E-01
 -0.54831249E-02 -0.54143564E-02 -0.95514082E-02
 -0.68316399E-02  0.58395763E-02 -0.22422921E-02
 -0.15019168E-02 -0.57569828E-02  0.45235540E-02
  0.28424769E-02  0.14142213E-02  0.64041620E-03
  0.44370276E-03 -0.16500267E-01 -0.25607665E-02
 -0.48082901E-02 -0.48826603E-02  0.67394792E-02
  0.41388066E-02  0.87313997E-02 -0.10107023E-01
  0.29848553E-02  0.14134652E-01 -0.87667513E-02
 -0.17822177E-02  0.66004423E-02 -0.19269965E-02
  0.35819115E-02 -0.39589329E-02  0.71185609E-02
 -0.96851371E-02 -0.19959701E-02 -0.18334922E-02
 -0.39243807E-02 -0.10935948E-02 -0.48710941E-02
 -0.22105925E-02 -0.82698323E-03 -0.31564153E-02
 -0.11550944E-01  0.33597648E-02 -0.56825680E-02
  0.35899002E-02  0.57880217E-02 -0.21772728E-02
  0.16750709E-02  0.36916242E-02  0.30646928E-02
 -0.49253237E-02  0.11763341E-01  0.21353640E-02
 -0.34808873E-03  0.15019508E-02 -0.47087529E-02
  0.77927609E-02 -0.11805404E-01 -0.70066044E-03
  0.51434826E-02  0.73201741E-02 -0.42346256E-03
 -0.37881836E-02  0.25502113E-02 -0.80222862E-02
  0.16888666E-02 -0.54464146E-02 -0.58303534E-02
 -0.59704732E-02  0.28000535E-02  0.26195024E-02
 -0.72335916E-02 -0.12540665E-01 -0.12062522E-01
 -0.40395271E-02  0.55669893E-03 -0.21287903E-02
  0.40471498E-02 -0.62541055E-03  0.43403655E-02
 -0.94026989E-02 -0.12064636E-01 -0.61151800E-02
 -0.68849862E-03  0.17158758E-01  0.26777010E-02
 -0.79314393E-02 -0.99927253E-02 -0.11625811E-01
  0.22682056E-02  0.85406123E-02 -0.48584261E-02
 -0.15708287E-02 -0.86212458E-02 -0.12509733E-01
  0.15899650E-01 -0.27243271E-02 -0.10551548E-01
 -0.27824771E-02 -0.82212651E-03  0.80252794E-02
  0.22524133E-02 -0.35500455E-02 -0.29581929E-02
 -0.28306661E-02 -0.92061752E-02 -0.78621747E-02
  0.90238128E-02 -0.10429403E-02 -0.34005737E-02
  0.19909201E-02  0.58498339E-02  0.97679576E-02
 -0.89027793E-02  0.29773111E-02 -0.12911406E-02
  0.44675282E-02  0.39601323E-02  0.36114851E-02
  0.14973841E-02  0.10034723E-02  0.35039817E-03
  0.51374989E-02  0.22656071E-02  0.51164477E-02
  0.20733895E-02 -0.18368571E-02  0.59943769E-02
 -0.32113304E-03 -0.46709199E-02  0.64173535E-02
 -0.53604432E-02 -0.40909733E-02  0.54201741E-02
  0.96904995E-02  0.47772424E-02 -0.15454223E-02
  0.31419414E-02  0.11586201E-01 -0.39750528E-03
  0.11399144E-02 -0.49082985E-02 -0.49567275E-02
 -0.12811729E-02  0.71879162E-02  0.37959544E-02
 -0.22483065E-02 -0.32233024E-02 -0.10774552E-01
  0.10913116E-01  0.20145480E-03  0.12051040E-02
  0.28860020E-02 -0.90403018E-02  0.74966573E-03
 -0.87003466E-02  0.58585685E-03  0.72826724E-02
 -0.29728290E-02 -0.18231295E-01 -0.18663836E-02
 
           1
  0.547311962346887     
  0.38129459E+00  0.41158403E-03 -0.55339297E-03  0.00000000E+00
  0.98507195E+00  0.32960145E-03  0.59539840E-02
  0.98439064E+00  0.16409619E+00  0.49627949E-02
  0.97973148E+00  0.33086959E+00  0.27311806E-01
  0.98426384E+00  0.50410023E+00  0.98937056E+00
  0.98619297E+00  0.67013978E+00  0.99242343E+00
  0.98922072E+00  0.83172733E+00  0.99935122E+00
  0.10924613E+00  0.80147087E-01  0.95691109E+00
  0.11118775E+00  0.23937047E+00  0.36517549E-01
  0.10512189E+00  0.41190418E+00  0.24099340E-01
  0.10783453E+00  0.58137665E+00  0.98319680E+00
  0.11159758E+00  0.75019367E+00  0.23992264E-01
  0.11182667E+00  0.91543329E+00  0.23681321E-02
  0.23276691E+00  0.99344714E+00  0.98470365E+00
  0.23462801E+00  0.15662647E+00  0.64133988E-01
  0.22994284E+00  0.32387748E+00  0.99169582E+00
  0.23234644E+00  0.49316446E+00  0.98475889E+00
  0.23216564E+00  0.66174408E+00  0.98430108E+00
  0.23419379E+00  0.82997773E+00  0.99111631E+00
  0.35711556E+00  0.83859565E-01  0.10893813E-01
  0.35346596E+00  0.24957913E+00  0.96455838E+00
  0.35601111E+00  0.41429316E+00  0.11476685E-02
  0.35704770E+00  0.58130483E+00  0.49649053E-01
  0.35812975E+00  0.74683850E+00  0.99143216E+00
  0.35581379E+00  0.91475091E+00  0.99042273E+00
  0.47880089E+00  0.99828541E+00  0.15467714E-01
  0.48437375E+00  0.16768761E+00  0.95526149E+00
  0.47876985E+00  0.33505164E+00  0.99316695E+00
  0.48335504E+00  0.49754342E+00  0.98556608E+00
  0.48575548E+00  0.65983370E+00  0.98474575E+00
  0.47709079E+00  0.82881434E+00  0.64316586E-02
  0.60216410E+00  0.88033350E-01  0.23732105E-01
  0.60267989E+00  0.25546858E+00  0.98156001E+00
  0.60538958E+00  0.41803826E+00  0.98835850E+00
  0.61328394E+00  0.57823439E+00  0.93959067E+00
  0.60498065E+00  0.74353603E+00  0.25431689E-01
  0.60548599E+00  0.91233709E+00  0.15562197E-01
  0.73188838E+00  0.49192053E-02  0.16151559E-01
  0.73429763E+00  0.16770015E+00  0.54959786E-01
  0.73194285E+00  0.33281894E+00  0.31271349E-01
  0.73613956E+00  0.50428261E+00  0.21904298E-01
  0.73771584E+00  0.66946388E+00  0.22729223E-01
  0.73340870E+00  0.83429663E+00  0.96895654E+00
  0.85724686E+00  0.79940727E-01  0.18092014E-01
  0.85815216E+00  0.24694164E+00  0.98699620E+00
  0.85916690E+00  0.41750843E+00  0.10953253E-01
  0.86321147E+00  0.58610054E+00  0.80457290E-02
  0.86166522E+00  0.75236156E+00  0.98614837E+00
  0.86000671E+00  0.91725988E+00  0.36340994E-01
  0.68027333E-01  0.99581017E+00  0.97944615E+00
  0.68276842E-01  0.15742404E+00  0.16124857E-01
  0.65663767E-01  0.32683303E+00  0.46233876E-01
  0.66292806E-01  0.49903337E+00  0.99145945E+00
  0.69348543E-01  0.66964892E+00  0.99209481E+00
  0.71434802E-01  0.83119117E+00  0.17216428E-01
  0.19496899E+00  0.79336343E-01  0.97300542E+00
  0.19437556E+00  0.24029121E+00  0.21491344E-01
  0.18861791E+00  0.40907674E+00  0.23519742E-01
  0.18957477E+00  0.57789635E+00  0.95989400E+00
  0.19258575E+00  0.74797055E+00  0.98130536E+00
  0.19457625E+00  0.91145227E+00  0.13560332E-01
  0.31690571E+00  0.99907977E+00  0.99058816E+00
  0.31822393E+00  0.16803597E+00  0.32113570E-01
  0.31639147E+00  0.33157068E+00  0.17625739E-01
  0.31593776E+00  0.49676917E+00  0.17958346E-01
  0.31630412E+00  0.66618729E+00  0.36190283E-02
  0.31702145E+00  0.83270943E+00  0.98146256E+00
  0.44151277E+00  0.83978663E-01  0.98110515E+00
  0.43881933E+00  0.25239140E+00  0.98133909E+00
  0.43554700E+00  0.41630602E+00  0.98288110E+00
  0.44606962E+00  0.57785685E+00  0.25820379E-01
  0.43968609E+00  0.74321976E+00  0.92120801E-02
  0.43671669E+00  0.91244929E+00  0.99688253E+00
  0.56492413E+00  0.99876990E+00  0.20582483E-02
  0.56912022E+00  0.16866185E+00  0.95757712E+00
  0.56164792E+00  0.33645650E+00  0.79276168E-02
  0.56500486E+00  0.50101839E+00  0.98456915E+00
  0.56574784E+00  0.66379407E+00  0.94970668E+00
  0.56108624E+00  0.82826173E+00  0.97772070E+00
  0.68908640E+00  0.82018310E-01  0.49376440E-01
  0.68684358E+00  0.24850737E+00  0.99807638E+00
  0.69033167E+00  0.42063737E+00  0.13248285E-02
  0.69579575E+00  0.58653537E+00  0.99925479E+00
  0.69198074E+00  0.75392062E+00  0.99173504E+00
  0.69058206E+00  0.91836621E+00  0.97708028E+00
  0.81574452E+00  0.12740161E-02  0.27868697E-01
  0.81526095E+00  0.16383629E+00  0.76433112E-02
  0.82051455E+00  0.32911512E+00  0.23780884E-01
  0.82036342E+00  0.50223819E+00  0.31200335E-01
  0.82218358E+00  0.67066274E+00  0.21092411E-01
  0.81341629E+00  0.83708824E+00  0.14991329E-01
  0.94077353E+00  0.81631918E-01  0.99369382E+00
  0.93982112E+00  0.24814520E+00  0.98947840E+00
  0.94369171E+00  0.41919402E+00  0.98993149E+00
  0.94415851E+00  0.58759604E+00  0.97339081E+00
  0.94422347E+00  0.75307122E+00  0.22231097E-01
  0.94422120E+00  0.91451926E+00  0.97839615E+00
  0.71473433E-01  0.24596721E-01  0.74230992E+00
  0.12330818E+00  0.38370603E+00  0.35641722E+00
  0.53637618E+00  0.21470967E+00  0.70957129E+00
  0.65068462E+00  0.89442710E+00  0.23219475E+00