undoped                                 
   1.00000000000000     
    17.3520000000000003    0.0000000000000000    0.0000000000000000
     0.0000000000000000   15.0272728064999992    0.0000000000000000
     0.0000000000000000    0.0000000000000000   10.6393173196999999
   B    N    Al
    48    48   128
Direct
  0.9942235007972949  0.0039999969624083  0.9729862005844708
  0.9909863596064168  0.1738205120491070  0.0288715039802519
  0.9920009578891228  0.3381508627825067  0.0009478500812798
  0.9924874043796669  0.5083019384596991  0.0273325240667313
  0.9926015695690517  0.6688122850308108  0.9512225634620082
  0.9826236045032667  0.8323761043398430  0.9569159266189424
  0.1162377157765953  0.0924391075274715  0.0374065945276927
  0.1146673260063046  0.2577182826259946  0.0309564263725497
  0.1193432147026366  0.4250293288729267  0.0613500412916607
  0.1164912010143534  0.5896224216120188  0.0032866000438882
  0.1062671665628735  0.7561144162850917  0.9562599205350885
  0.1170798601015736  0.9233033613031372  0.0015747031017767
  0.2404035034168026  0.9939264430367484  0.0134878606864050
  0.2403202044081955  0.1635083058729474  0.0074929261483960
  0.2388074214531442  0.3317528536722104  0.9974360837614721
  0.2411705424118142  0.4974367759121853  0.9928340194819201
  0.2381527526623891  0.6649395958273827  0.9503193888818512
  0.2417491135900970  0.8305637055841656  0.9663305750734286
  0.3616991505078018  0.0849842270823710  0.9940814842079344
  0.3672967720239924  0.2494170266583212  0.0193265619598811
  0.3638750525233185  0.4102893294522227  0.9946326522662919
  0.3692040830223283  0.5840033962893454  0.9841832626250037
  0.3684047139421879  0.7510801747597151  0.9476701008013512
  0.3645470493148234  0.9178519368542160  0.0154436940500312
  0.4950449897200142  0.0034011928113343  0.0324702063099030
  0.4894805138697836  0.1695709421658484  0.0184351081948172
  0.4901019410233547  0.3262432944392462  0.0091163368348474
  0.4886517617856806  0.4812752122357149  0.9673340389316534
  0.4918352445102325  0.6633911759883234  0.9681736977712839
  0.4948806619746224  0.8339640714671832  0.9953014065830127
  0.6218463293609279  0.0876781247750739  0.0007077478092333
  0.6217934042770404  0.2473446492130996  0.0502412276165020
  0.6168805029023193  0.4094653285159729  0.9624267561920313
  0.6154307062671343  0.5840470216856569  0.9880975396049169
  0.6166351527618733  0.7534780240887660  0.9787604846694037
  0.6103066064906078  0.9253684745542519  0.9650254534714547
  0.7372921191616008  0.0101549065403433  0.9959956526454515
  0.7414919702496933  0.1751174115424522  0.9561301808989291
  0.7409773551163299  0.3309866168197523  0.0004686862877062
  0.7418588390254606  0.5005473810540896  0.9983428306499870
  0.7435380155082432  0.6721039873951230  0.9862195615882539
  0.7405808315984660  0.8397554793194929  0.0070463742099332
  0.8642496135678182  0.0873182509410725  0.0065559298850367
  0.8636358152178201  0.2537575308537468  0.9862927611015196
  0.8619448288233885  0.4170869023866052  0.0247898887276563
  0.8650940487939068  0.5877739971799082  0.9996095117799626
  0.8605214501465671  0.7468182449046378  0.9360459690135720
  0.8650690930239048  0.9167511725905014  0.9863609618811107
  0.0748806122652229  0.0070412893917223  0.0170422385992387
  0.0774477603082805  0.1736872960340263  0.0076151368919521
  0.0747814310384774  0.3397522963656082  0.0347329094363306
  0.0774550517858242  0.5071612097082931  0.0150168021105615
  0.0731592520300040  0.6687272353651094  0.9592064299739189
  0.0720595510398001  0.8403555590708436  0.9606296809248155
  0.1985763240959231  0.0813674479994715  0.0219687176240381
  0.2017321111487945  0.2468849303674212  0.0596190236860585
  0.2051978909911301  0.4166580094990563  0.0421446627383596
  0.2024891285757525  0.5824949058873710  0.9806163704037781
  0.1943174616663771  0.7509784187716704  0.9601069036027805
  0.2028106432393613  0.9113409403091827  0.0143133315144977
  0.3228194788621431  0.0016112420079720  0.9900120833375895
  0.3229842002636276  0.1700359235913976  0.0022818233471184
  0.3223853082357053  0.3339006735952665  0.0408644239954128
  0.3230934173826208  0.4938414866746226  0.9769629118337873
  0.3237863804954580  0.6682146010696793  0.9640553416179092
  0.3254500007158830  0.8350853711919408  0.9834194707870390
  0.4444198461343395  0.0887392464789308  0.0378694758328932
  0.4476024550009278  0.2503230193336257  0.0450600665353407
  0.4483541658671841  0.4074400816654375  0.0111813330330458
  0.4513264659947347  0.5735705682826813  0.9465741199813148
  0.4502917289969168  0.7496435838659420  0.9727377127885948
  0.4534474188113113  0.9157887385647160  0.0283931052486271
  0.5807907227061542  0.0035786293255045  0.0248513622262290
  0.5759552676107166  0.1668763080341977  0.0182849962229340
  0.5766540456486797  0.3309609886285804  0.0125186627994971
  0.5751342703612046  0.4960990472601787  0.9836091754086134
  0.5762662932633794  0.6694109907602827  0.0001988980140372
  0.5782621590928868  0.8375487302105293  0.9918055162476237
  0.7027884797171987  0.0888894066503564  0.9650719552594164
  0.6995907262943744  0.2490187118788114  0.0057749797897871
  0.7051926231703481  0.4175792552622348  0.9787339071019444
  0.7025461008723478  0.5839628778913760  0.0098112257655128
  0.6996985914039000  0.7547705812453989  0.9787329394292968
  0.7005758003870437  0.9288285525203188  0.9793501114716633
  0.8241413366474454  0.9971668769924474  0.0114350116706130
  0.8237441846278779  0.1688436253267894  0.9858438398686529
  0.8208579548659495  0.3324541657251844  0.0320772317873173
  0.8237247404004937  0.5033008119181914  0.0073679640924572
  0.8246212394193709  0.6664938318418513  0.9701816675096300
  0.8299896060925719  0.8290363424073586  0.0009679781996908
  0.9453581088570611  0.0848489543856093  0.9956602288189739
  0.9502885547540030  0.2550634036480904  0.9819803392732913
  0.9479540698025634  0.4185851222725817  0.0364120685079263
  0.9512087668073610  0.5867605587979274  0.9855851515712856
  0.9466884941742785  0.7494035865577877  0.9575114015018722
  0.9483390982103757  0.9194525669718364  0.9739870989047005
  0.0619412823541675  0.0064090482661333  0.7440903161652015
  0.1067394715739628  0.3360932698538577  0.4100009809289670
  0.5421186904634187  0.2170371930370437  0.8050387547776829
  0.6702998664386343  0.9130492520223422  0.1698631387517366
  0.6746136505635957  0.2487484000886935  0.7400583413544916
  0.0827490852513406  0.1775156292867440  0.7993106079351008
  0.5581502896788182  0.8369882062172971  0.2786091797362332
  0.3903376530155899  0.1631979455758603  0.7863520954613956
  0.9325897529608493  0.1227719522676521  0.7386514459380776
  0.8233528111160798  0.1988531656996237  0.3751655599635990
  0.4620025277071018  0.5314220249331912  0.7229788555112593
  0.1108205849081879  0.6262438184236716  0.5218194291925301
  0.9320748715619723  0.5489859638030349  0.7313503255321800
  0.1586872747391004  0.5943110558584167  0.2491725104552781
  0.4374649809336809  0.5871851956079274  0.1665721064258472
  0.8569150019169115  0.4072543428966535  0.7097884288675742
  0.5697351434902722  0.3408266024155526  0.2305386029762442
  0.6448056127915753  0.9016369788896222  0.7519536951481555
  0.9337682220856257  0.7769306181332973  0.4604593635321224
  0.1955722221009708  0.4196186743406115  0.5218173172020253
  0.4277657064962601  0.7262112573203584  0.7243791376383513
  0.1966054733280017  0.9486190755954849  0.7433734240554662
  0.7139999875117730  0.4092308756160804  0.7749681497144566
  0.0415052418618954  0.7082335156182702  0.2961758045450172
  0.8126420407162666  0.8495677474767144  0.7761695272472803
  0.5710845298031199  0.6709327090813167  0.2893751157642135
  0.7893795674715973  0.5557072753697616  0.7507563886200879
  0.3217697675695818  0.1751211537484390  0.3627224927522506
  0.3093295029946330  0.2906070849186886  0.5153033100179457
  0.4168726675193198  0.0402690988279303  0.5184504277436416
  0.5699047151798042  0.3911312532514809  0.7569913525144173
  0.5508492686942190  0.1747518023678699  0.2795002216854982
  0.9036361188892484  0.9458934575447175  0.3173717839476709
  0.7448609564486874  0.9003326632173149  0.3627878351028448
  0.3200994631260103  0.4514132974502929  0.7874830464526215
  0.4396646441000125  0.7389276850174370  0.2994922539442345
  0.8883433920064615  0.0662643280451757  0.5225986527701603
  0.5181827872908727  0.3742125980997208  0.5289018949316102
  0.4205360686934829  0.3531793608334249  0.7459929626080946
  0.5212369824147676  0.7358405654837462  0.5168348875136383
  0.8302327854727686  0.3316042300315446  0.2597523328113426
  0.4267325602091853  0.0817792184617955  0.2329166341137469
  0.4362097798162646  0.8969136312763103  0.7225007318941460
  0.9632864423629284  0.7892382167089647  0.6896509138243895
  0.8345622508260098  0.7139229001199890  0.6706236891354295
  0.9597288124597807  0.2634256779792613  0.3889273753283119
  0.8056224990509960  0.2368590120427083  0.7860551329219846
  0.5529633313918884  0.9973510972290592  0.3099332838106579
  0.6717785029660468  0.8130102012675688  0.5511679831630468
  0.1932891573430407  0.5430038759606862  0.7524677612409207
  0.8115901865441072  0.0178147104095934  0.7224556863261021
  0.7042863501959846  0.7474451488421501  0.2391084160652182
  0.4302078904510210  0.9149181214931832  0.2242901983847771
  0.3110147917471074  0.6395950019245857  0.7653560103664182
  0.5148847106361174  0.0556427853893887  0.7210337877875101
  0.3067593708111790  0.8208295776289725  0.2656084526622982
  0.7586934494963911  0.1622865849523086  0.5764343797107598
  0.4490042371889831  0.4315368203879872  0.3204231313693235
  0.6894827879233451  0.9996141729800723  0.5090985159902539
  0.5620029916645448  0.7719770546699096  0.7474657863436596
  0.6822893380656743  0.0592251179802769  0.3068080458973523
  0.2197118567402494  0.1198214140687007  0.7748407668412224
  0.9147572395407523  0.1264716218507270  0.2290443456614426
  0.9354585593159372  0.5950960670047631  0.4874655791972241
  0.0190824015811160  0.8673256195012686  0.2342841513925459
  0.6517899498437406  0.4540039750291563  0.5566595445645692
  0.1628895949049735  0.4394097471654666  0.2635127596303748
  0.6185807105077336  0.5881465360454777  0.7079001469150211
  0.6920841531013420  0.6501099771170065  0.5300264272267526
  0.2702426511974549  0.0647783297767873  0.5689845188915522
  0.7895223677141174  0.7186883053165599  0.4059531663976590
  0.0779555755092934  0.6389118610766268  0.7655522990094348
  0.4129379462138767  0.5833007234130380  0.4412258199461622
  0.9699105969867571  0.9432205121314161  0.5142368144359136
  0.4636257279436247  0.2117239502385188  0.5851342240837000
  0.3100751342683392  0.8253281777894057  0.7301004479007488
  0.6927039608035995  0.4084860664466172  0.3161442694007642
  0.0639060773972936  0.2097319906356339  0.2290938142288713
  0.1795291891141512  0.2081851534855348  0.5800235359913648
  0.6572087531719751  0.0814722289628363  0.7751480515592277
  0.0272673454220910  0.5437966938837118  0.3349489673078969
  0.6941444912144266  0.5734600163057212  0.3032032999607854
  0.9539657003836336  0.2765630527249751  0.8069264187735578
  0.2857468365504674  0.2685067525265000  0.7681578685783870
  0.7673534419260288  0.3615053849991337  0.5315117510451606
  0.0988356022473080  0.8275233819955151  0.5315791697995553
  0.3184637631349178  0.3696004037749502  0.2360670324878738
  0.7117663889483616  0.6972274822077562  0.7766023509511589
  0.5454314831619120  0.5494331559732000  0.5047170298538011
  0.7028686103295436  0.2334493041990869  0.2310952732279430
  0.5456591215580681  0.9191464957012547  0.5317932840222515
  0.9917349161587850  0.3799873669583432  0.2133000969499007
  0.8974629593726701  0.2457431557604878  0.5923895411061855
  0.9137232290930440  0.4145067520270554  0.4678801134717784
  0.0737976107561874  0.3168910573920742  0.6537898144382727
  0.2151024792663694  0.2440185682718510  0.2372048397013634
  0.3180151677127399  0.7329764316691303  0.4913710808470077
  0.3375713365554353  0.0041463714633085  0.7841603029522471
  0.5850719321771923  0.1064499611406861  0.5319894229149128
  0.1849823795849188  0.7325893833053880  0.3795582270062811
  0.8175863162978602  0.8957341149713781  0.5263080088216348
  0.1973032970724689  0.7278312864689086  0.6871922791414674
  0.8411357293896061  0.8040605830294438  0.2165383070028147
  0.7924406915002666  0.5241890510025197  0.5044354986255153
  0.0888335947750612  0.8389002112513071  0.7664858996181672
  0.5639334368837166  0.5053799838858160  0.2291976663933258
  0.3705865288386394  0.4363556224194539  0.5350136839176491
  0.2994498651175865  0.6786599961419939  0.2067718364295515
  0.9407528960484236  0.9614270737476018  0.7451616559113268
  0.3138994537715191  0.9991665827736662  0.3447684625032397
  0.0396794450450234  0.4808946774813068  0.5548363533825631
  0.1645569436743538  0.9243200945687545  0.2890344973948227
  0.7947434031719748  0.0125616600271057  0.1961351724018220
  0.0351225396655089  0.0505571193475967  0.2961712970752713
  0.1833204208522566  0.0872302745583047  0.2938677260086960
  0.8458257754980452  0.5101640293726568  0.2462548491658860
  0.0518649362384006  0.4433627618603744  0.7807029250151695
  0.1719432305871139  0.3722175200666177  0.7963467853080296
  0.2922029581756250  0.5090473119151973  0.3376719804067701
  0.9131620122321565  0.6593087894714299  0.1920571747123447
  0.2726430843990523  0.8840607186601955  0.5251134397184282
  0.1319042878829777  0.0048691739955092  0.5150335323086701
  0.1524459136965240  0.7854796833610485  0.1662093804793762
  0.6453310203359215  0.2732633182987321  0.4627362801803616
  0.0474909987488621  0.1335843801355926  0.5314930773190284
  0.4089910247299088  0.8688101724528826  0.4702498690723000
  0.2608981727077010  0.5912081365443201  0.5608754290508372
  0.4473948496559851  0.2857120784194189  0.3196798589676483
 
 -0.11028153E-01 -0.56230018E-02 -0.55217140E-02
 -0.12347246E-01 -0.23191171E-02 -0.10612356E-02
  0.36632487E-02  0.80422230E-02 -0.26360435E-02
  0.24995435E-02  0.38336878E-02  0.78382256E-03
  0.99958425E-03 -0.83100928E-03  0.76125634E-02
  0.59396090E-02 -0.96030427E-02 -0.78618237E-02
 -0.29663962E-02 -0.30548679E-02 -0.14804462E-01
  0.64039037E-03 -0.48978154E-02 -0.18196577E-01
 -0.39408248E-02 -0.35837055E-03 -0.90505595E-02
 -0.38835482E-02  0.77323110E-02  0.19735600E-01
  0.13726645E-01  0.18021648E-01  0.19154871E-01
  0.53977898E-02 -0.24798217E-02 -0.95608101E-02
  0.15273348E-02 -0.95345718E-03 -0.71333899E-02
 -0.31882171E-03 -0.62187640E-02  0.12315215E-01
  0.19320005E-01 -0.10175092E-02  0.11756360E-01
  0.10328820E-01 -0.95130729E-02  0.56361562E-02
  0.72621120E-02  0.92643877E-02  0.32729734E-02
  0.86685220E-02 -0.56810997E-02  0.69703386E-02
  0.55321640E-02 -0.10312443E-01 -0.12004821E-02
 -0.42050612E-02  0.22965484E-02 -0.23954226E-01
  0.67465523E-02  0.59721169E-02  0.65419014E-02
 -0.20381894E-02 -0.56160483E-02 -0.11061029E-01
  0.79784313E-03 -0.76975259E-03  0.99425251E-02
  0.16655223E-01 -0.11633868E-01 -0.26203136E-02
 -0.73330352E-02 -0.16836937E-04 -0.17272428E-01
  0.76817787E-03 -0.71600190E-02  0.36277849E-03
  0.30042369E-02  0.57082312E-02 -0.45012325E-02
  0.43156094E-03 -0.32384814E-02  0.14692646E-01
  0.77070339E-02  0.89399234E-02 -0.27062171E-02
 -0.43295331E-02  0.55287639E-04 -0.63657854E-02
  0.23340653E-03  0.37020330E-02 -0.14139916E-01
  0.50335229E-03  0.60855171E-02  0.16806613E-02
 -0.55094208E-02  0.28984110E-02 -0.24661234E-02
  0.95792862E-04  0.73594310E-03  0.10806859E-01
  0.10871891E-01 -0.81781799E-02  0.64499435E-02
  0.66258946E-02 -0.26395313E-02 -0.17823047E-01
  0.21188566E-01  0.30066184E-02 -0.80895126E-02
  0.44575200E-02  0.38514209E-02 -0.11574851E-01
 -0.14492108E-02 -0.68132601E-02  0.25410286E-03
  0.84727493E-02 -0.17292790E-02 -0.10499464E-02
 -0.24240528E-03 -0.82856147E-02  0.15988481E-02
 -0.18798416E-01  0.39455752E-02 -0.41147504E-02
 -0.38810599E-02  0.53153984E-02 -0.15365053E-02
  0.42367308E-02 -0.31890332E-03 -0.12933883E-01
  0.84064520E-02  0.26864781E-02 -0.14343440E-01
 -0.30652399E-02  0.91293279E-02 -0.91217625E-02
 -0.25014308E-02  0.72829857E-02 -0.20791655E-02
 -0.10007143E-01 -0.77313846E-02  0.47228422E-02
 -0.12330937E-01 -0.67796147E-02 -0.89575121E-02
 -0.68180798E-02 -0.20904257E-02 -0.68859273E-02
  0.44302415E-02  0.62878960E-02 -0.50509078E-02
  0.37532348E-02  0.70760523E-03 -0.25761411E-02
  0.50344355E-02  0.87942064E-02 -0.62094388E-02
  0.99082857E-03  0.43591495E-02 -0.30654148E-02
 -0.22243512E-02 -0.69745104E-02  0.10187868E-01
 -0.83375564E-02 -0.55033351E-02 -0.45415033E-02
  0.47996119E-02  0.52729679E-02 -0.39818073E-03
  0.11263107E-01  0.37731746E-02 -0.97573828E-02
  0.14129025E-01  0.29707401E-03 -0.87083798E-02
 -0.37256179E-02  0.92023488E-03 -0.20622492E-02
  0.11081392E-01 -0.39843366E-02  0.10652467E-01
 -0.54589549E-03 -0.59838824E-02 -0.39365270E-02
  0.63598793E-02 -0.42754576E-02 -0.17710892E-02
 -0.46679459E-03 -0.10002844E-02  0.34918613E-02
  0.13620153E-01  0.36766618E-03  0.56775672E-02
  0.62583020E-02  0.44065013E-02 -0.31228939E-03
 -0.45736525E-02  0.45390844E-02  0.55962784E-02
  0.80787042E-02  0.41941294E-02  0.61362265E-02
 -0.63591262E-03  0.92947440E-03  0.43752804E-02
 -0.11567529E-01  0.15505673E-01  0.10658071E-01
  0.86731883E-04  0.83020856E-02  0.11401622E-03
  0.10012672E-02 -0.13484116E-02 -0.94475197E-02
  0.61535364E-02  0.57852738E-02 -0.11842889E-02
  0.33137804E-02 -0.21746469E-02  0.83917661E-02
 -0.69968378E-02  0.80867877E-02 -0.86381729E-02
  0.69251157E-02 -0.10885580E-01  0.13461547E-01
 -0.29575510E-04  0.65229940E-02 -0.28307661E-02
  0.11208447E-02  0.10291149E-01 -0.65870609E-02
 -0.26271891E-02  0.27821443E-02  0.11000294E-01
 -0.28528254E-02 -0.18651667E-01  0.10618198E-01
 -0.11247606E-01 -0.40639677E-02  0.74133604E-04
  0.33938189E-02 -0.98170390E-02 -0.10278746E-01
 -0.35028622E-02 -0.68917037E-02  0.98173829E-02
 -0.48119649E-02 -0.19688608E-02  0.28411201E-02
 -0.11117745E-02  0.72069323E-02  0.13866028E-01
 -0.88629347E-02 -0.39553674E-03 -0.26627183E-04
  0.71692331E-02 -0.54912589E-02  0.13014138E-01
 -0.54718167E-02 -0.45809905E-02 -0.12205792E-01
  0.15777259E-02  0.52139545E-02 -0.62163654E-02
 -0.11393435E-01 -0.93809742E-02  0.98027634E-02
  0.62863677E-02 -0.49854721E-02 -0.14349024E-02
 -0.19008294E-01  0.68209568E-02  0.49216353E-02
 -0.11249374E-03 -0.73445503E-03  0.13516067E-01
  0.75135631E-02  0.44401017E-02  0.13020897E-02
 -0.43680470E-02 -0.13379708E-01 -0.76605099E-02
 -0.17272267E-01 -0.13277430E-01 -0.90010188E-03
 -0.10610024E-02  0.48091003E-02  0.74561354E-02
 -0.41247547E-02  0.80104539E-02  0.86182718E-02
 -0.32362654E-02  0.36384365E-02 -0.64539037E-02
  0.16575507E-01  0.77277027E-02  0.22109837E-02
 -0.23805112E-02 -0.17253502E-02  0.10116596E-02
  0.13122541E-02 -0.12837961E-01 -0.38588744E-02
  0.24255323E-02 -0.10611685E-02  0.26036560E-02
  0.20534591E-02  0.18197654E-02 -0.67923234E-02
 -0.93576841E-02  0.78993705E-02  0.18679008E-02
 -0.88915277E-02 -0.52666382E-02  0.25633138E-02
 -0.74443078E-02 -0.48411790E-02 -0.50580145E-02
  0.47497632E-03 -0.70492818E-02  0.17526542E-02
  0.22765570E-02  0.15810826E-02  0.16224129E-03
  0.87249182E-02 -0.94739679E-02 -0.24884922E-03
  0.10302633E-01 -0.10347125E-01  0.38694600E-02
  0.59715384E-02  0.67570611E-02 -0.24173510E-02
  0.75131180E-02  0.25426186E-02  0.70645285E-02
 -0.13615465E-01 -0.31520932E-02 -0.32591451E-02
 -0.11397456E-01 -0.67976290E-02  0.10024192E-01
 -0.82183676E-02 -0.16406070E-02  0.44558060E-03
  0.15058704E-02  0.42732324E-02  0.98720882E-02
  0.77015406E-02  0.15745606E-03 -0.36280867E-02
  0.17727695E-02 -0.19820177E-02 -0.81718787E-03
  0.73010688E-03  0.11511027E-01  0.13694222E-02
 -0.79931520E-03 -0.51783262E-02  0.11818213E-01
 -0.48456379E-02  0.20412757E-02  0.12222819E-03
  0.65475418E-02  0.15856442E-02 -0.14435454E-02
  0.27645704E-03 -0.38998801E-02  0.57305422E-02
 -0.31477401E-02 -0.20772458E-02 -0.94820711E-02
  0.26124951E-02  0.63799200E-02  0.68679224E-02
 -0.70733891E-02 -0.12482005E-03 -0.24704143E-02
  0.27160007E-02 -0.85037992E-02 -0.22180291E-02
 -0.51239490E-02 -0.13981816E-02  0.77878723E-02
  0.32086272E-02  0.85824202E-02 -0.29005329E-03
 -0.48882199E-02  0.42822444E-02  0.26293825E-02
  0.11176184E-01  0.75055744E-02 -0.29389977E-02
 -0.16870532E-02  0.79068486E-02  0.85425998E-02
 -0.44338345E-02 -0.11983776E-01  0.82668881E-02
 -0.13053190E-02 -0.67525739E-02 -0.91273304E-02
 -0.31963143E-02  0.40051669E-02  0.28186806E-02
  0.16605516E-02 -0.37674905E-02 -0.21737226E-02
  0.97585826E-02  0.79036468E-02  0.24245861E-02
  0.11555037E-01 -0.76033173E-03 -0.30223382E-02
  0.91677814E-02  0.12108670E-01 -0.61358492E-02
 -0.76244030E-02  0.61516737E-02 -0.15135190E-01
  0.20057971E-01 -0.12452440E-02 -0.79736372E-05
 -0.37098754E-02  0.38739757E-02 -0.64778715E-02
  0.75560236E-02 -0.19877568E-02 -0.10921340E-02
 -0.86222002E-02  0.52627553E-04  0.32217783E-02
 -0.81956473E-02  0.13134070E-02  0.39490027E-02
  0.11493272E-02 -0.34429297E-02 -0.30434626E-02
  0.29736345E-03 -0.48532007E-02 -0.97855798E-02
 -0.10399312E-02 -0.91852417E-02  0.11568063E-01
  0.19857820E-02 -0.50622825E-03 -0.80735034E-02
 -0.22744067E-03 -0.26931920E-02  0.11505324E-02
 -0.19268549E-01  0.11195078E-01 -0.64637715E-02
 -0.89771134E-02 -0.40458343E-02 -0.55552781E-03
  0.56418314E-02 -0.36522842E-02 -0.18442553E-01
 -0.74830326E-02  0.86758508E-02  0.97770061E-02
  0.51871395E-02 -0.35302550E-02  0.65652657E-02
  0.29614009E-02 -0.10351980E-02  0.33312861E-02
 -0.35961857E-02  0.53816067E-02  0.53399349E-03
 -0.15635274E-01  0.96498661E-02  0.51289140E-02
 -0.11700206E-01 -0.19765605E-02  0.56628081E-02
 -0.85532805E-02 -0.41194519E-02 -0.30629138E-02
 -0.64772882E-02 -0.10001604E-01  0.51741582E-04
 -0.12480479E-01  0.66383119E-02  0.23098907E-02
 -0.24368357E-02 -0.31387826E-02 -0.41974754E-02
  0.10181357E-02 -0.35659770E-02 -0.27529662E-02
  0.23231664E-02  0.76530970E-03 -0.20791057E-02
 -0.64666952E-03  0.49591742E-02  0.36437255E-02
  0.52098497E-02 -0.43146987E-02  0.35526458E-02
 -0.95665700E-02 -0.11872561E-02  0.92106267E-02
 -0.10377854E-01  0.50524042E-02 -0.56761100E-02
 -0.99325042E-02  0.91639363E-04 -0.93551668E-02
  0.41154812E-02 -0.38613622E-02  0.35712172E-03
  0.12550608E-01  0.96113065E-03  0.86648343E-02
  0.66022110E-02  0.15375880E-03  0.22952603E-02
  0.51429583E-02  0.43697414E-02 -0.50070323E-02
 -0.35261814E-02 -0.29830162E-02  0.28978551E-02
  0.16340763E-02  0.49756665E-02 -0.23544290E-02
  0.52558259E-02  0.75637696E-02 -0.14564302E-02
  0.13867041E-01  0.84473835E-02 -0.12770452E-02
  0.15291067E-02  0.57387019E-02  0.63475154E-02
 -0.90986539E-02 -0.68071544E-02  0.72189411E-02
 -0.34868352E-02 -0.27264188E-02 -0.84513237E-02
 -0.64774179E-03  0.44441788E-02  0.17809539E-02
 -0.49672322E-03  0.72628837E-02  0.78449402E-02
  0.87738294E-02  0.60056859E-02 -0.77517081E-02
  0.25515787E-02 -0.33095782E-02  0.68286938E-02
  0.46604371E-02 -0.10459376E-01 -0.28004474E-02
 -0.20836604E-04 -0.46913464E-02  0.45671722E-02
  0.19614858E-02 -0.32401139E-02  0.60755110E-02
  0.62201547E-02  0.87201835E-02 -0.38927464E-02
 -0.26970202E-02  0.75310460E-02 -0.48541260E-02
 -0.43912862E-02 -0.55159575E-02 -0.22774734E-02
  0.36564808E-03  0.13181565E-01  0.13365831E-01
  0.12387504E-01  0.71674455E-03  0.53054227E-02
  0.33647070E-02 -0.13474731E-01 -0.68049188E-02
  0.69082583E-02 -0.13173799E-01 -0.44399386E-02
 -0.24030928E-02  0.48207514E-02 -0.10428625E-01
 -0.36155876E-02 -0.33497593E-02  0.17917557E-03
  0.94568595E-02  0.15168938E-02  0.60056914E-03
  0.69492610E-02  0.35776989E-02  0.18553498E-03
 -0.35897943E-02  0.37698461E-02  0.53133576E-02
  0.37101378E-02 -0.51883817E-02 -0.36599942E-02
 -0.53173343E-02 -0.60369216E-02 -0.64582515E-02
 -0.16291423E-02  0.48433253E-02 -0.51762556E-02
  0.33570283E-02 -0.49482403E-02  0.18440321E-02
  0.14867386E-02  0.44594543E-02 -0.13487843E-01
 -0.13547259E-02 -0.22005052E-02 -0.74324753E-02
 -0.55681464E-02 -0.92770437E-02 -0.32014556E-02
  0.51336573E-02  0.20543926E-02 -0.41896898E-02
  0.86871575E-02 -0.61698784E-02  0.53741262E-03
  0.12563799E-02  0.50909551E-02 -0.84077932E-02
  0.16310850E-02  0.67612264E-02 -0.17696985E-02
 -0.10510411E-01 -0.29811340E-02 -0.76539020E-02
  0.15801030E-02  0.21906939E-01  0.81675127E-02
 -0.40934265E-02 -0.42295386E-02 -0.51357462E-02
 -0.30220737E-02 -0.15574217E-01  0.67460645E-02
 -0.42006498E-02  0.72737271E-02  0.63398881E-02
 -0.57332571E-03 -0.50380054E-02 -0.61414409E-02
 -0.76492065E-02 -0.76496448E-03  0.92120665E-02
 -0.72477325E-02 -0.24051142E-02  0.13771380E-01
  0.69369838E-03 -0.11512222E-01  0.71688802E-02
 -0.30746715E-02  0.23390093E-02 -0.86826890E-02
 -0.87966619E-03  0.51772430E-02 -0.73940164E-03
  0.16178788E-02 -0.23087620E-02  0.11407577E-01
 
           1
  0.547311962346887     
  0.86018144E+00  0.29826058E-02 -0.13761672E-03  0.00000000E+00
  0.99387565E+00  0.37952002E-02  0.97270215E+00
  0.99059691E+00  0.17373605E+00  0.28816911E-01
  0.99211650E+00  0.33844377E+00  0.81224569E-03
  0.99256624E+00  0.50844157E+00  0.27372846E-01
  0.99263310E+00  0.66878202E+00  0.95161417E+00
  0.98281095E+00  0.83202635E+00  0.95651150E+00
  0.11614415E+00  0.92327845E-01  0.36645018E-01
  0.11468753E+00  0.25753990E+00  0.30020351E-01
  0.11921891E+00  0.42501628E+00  0.60884459E-01
  0.11636871E+00  0.58990404E+00  0.43018466E-02
  0.10670013E+00  0.75677079E+00  0.95724529E+00
  0.11725012E+00  0.92321304E+00  0.10828721E-02
  0.24045168E+00  0.99389172E+00  0.13120902E-01
  0.24031015E+00  0.16328181E+00  0.81264503E-02
  0.23941681E+00  0.33171579E+00  0.99804086E+00
  0.24149633E+00  0.49709030E+00  0.99312396E+00
  0.23838181E+00  0.66527702E+00  0.95048776E+00
  0.24202253E+00  0.83035679E+00  0.96668915E+00
  0.36187364E+00  0.84608635E-01  0.99401973E+00
  0.36716414E+00  0.24950067E+00  0.18094299E-01
  0.36408785E+00  0.41050684E+00  0.99496918E+00
  0.36913980E+00  0.58379885E+00  0.98361426E+00
  0.36842988E+00  0.75105214E+00  0.94818157E+00
  0.36507238E+00  0.91742822E+00  0.15308899E-01
  0.49481369E+00  0.34005796E-02  0.31581671E-01
  0.48950474E+00  0.16931017E+00  0.18453770E-01
  0.49019670E+00  0.32645120E+00  0.88847827E-02
  0.48866537E+00  0.48115726E+00  0.96808986E+00
  0.49207834E+00  0.66371678E+00  0.96803448E+00
  0.49474410E+00  0.83396609E+00  0.99497394E+00
  0.62185369E+00  0.87812957E-01  0.99998036E+00
  0.62180928E+00  0.24756629E+00  0.50327685E-01
  0.61670673E+00  0.40957089E+00  0.96229989E+00
  0.61543373E+00  0.58407383E+00  0.98865347E+00
  0.61697807E+00  0.75318016E+00  0.97909229E+00
  0.61051560E+00  0.92527234E+00  0.96410859E+00
  0.73796044E+00  0.10264411E-01  0.99557951E+00
  0.74163257E+00  0.17525769E+00  0.95553474E+00
  0.74093164E+00  0.33073847E+00  0.48175795E-03
  0.74212608E+00  0.50048440E+00  0.99828882E+00
  0.74353037E+00  0.67180222E+00  0.98630181E+00
  0.73998790E+00  0.83989918E+00  0.68347016E-02
  0.86412720E+00  0.87511844E-01  0.64768884E-02
  0.86376945E+00  0.25374592E+00  0.98562741E+00
  0.86220998E+00  0.41718475E+00  0.24052028E-01
  0.86499737E+00  0.58810650E+00  0.99914027E+00
  0.86044255E+00  0.74708350E+00  0.93593901E+00
  0.86475345E+00  0.91646959E+00  0.98660392E+00
  0.74491673E-01  0.67943674E-02  0.16581443E-01
  0.77232706E-01  0.17361116E+00  0.72609083E-02
  0.74921168E-01  0.33998131E+00  0.34473079E-01
  0.77573435E-01  0.50718698E+00  0.14884279E-01
  0.73318047E-01  0.66904753E+00  0.95888700E+00
  0.72090803E-01  0.84051432E+00  0.96047199E+00
  0.19850616E+00  0.81113428E-01  0.22492806E-01
  0.20146913E+00  0.24668449E+00  0.59385398E-01
  0.20534928E+00  0.41685006E+00  0.42124179E-01
  0.20284439E+00  0.58263233E+00  0.98011443E+00
  0.19476312E+00  0.75098924E+00  0.95965892E+00
  0.20269313E+00  0.91137446E+00  0.14207244E-01
  0.32316901E+00  0.14661275E-02  0.99056007E+00
  0.32296698E+00  0.16981798E+00  0.20793190E-02
  0.32258591E+00  0.33374496E+00  0.40773315E-01
  0.32307869E+00  0.49380506E+00  0.97714254E+00
  0.32421598E+00  0.66822799E+00  0.96434741E+00
  0.32564740E+00  0.83524586E+00  0.98340341E+00
  0.44427559E+00  0.88904566E-01  0.38157362E-01
  0.44785727E+00  0.25047577E+00  0.45375729E-01
  0.44833411E+00  0.40747393E+00  0.11406408E-01
  0.45096161E+00  0.57413530E+00  0.94712240E+00
  0.45029446E+00  0.74994596E+00  0.97274358E+00
  0.45347900E+00  0.91573963E+00  0.27907102E-01
  0.58098482E+00  0.37893362E-02  0.24790440E-01
  0.57605979E+00  0.16679710E+00  0.18716689E-01
  0.57643335E+00  0.33125552E+00  0.12074294E-01
  0.57535270E+00  0.49570258E+00  0.98430167E+00
  0.57626536E+00  0.66964857E+00  0.53276628E-04
  0.57829751E+00  0.83792355E+00  0.99146666E+00
  0.70270561E+00  0.88990736E-01  0.96563784E+00
  0.69950074E+00  0.24833939E+00  0.63212053E-02
  0.70483785E+00  0.41743124E+00  0.97873772E+00
  0.70265315E+00  0.58360533E+00  0.92824624E-02
  0.69958811E+00  0.75451958E+00  0.97923797E+00
  0.70042402E+00  0.92875684E+00  0.97949627E+00
  0.82410627E+00  0.99742936E+00  0.12148313E-01
  0.82346463E+00  0.16882922E+00  0.98584247E+00
  0.82108408E+00  0.33225417E+00  0.32746710E-01
  0.82355215E+00  0.50313397E+00  0.67400689E-02
  0.82467100E+00  0.66668373E+00  0.96986188E+00
  0.82963024E+00  0.82869468E+00  0.14722558E-02
  0.94555639E+00  0.84667377E-01  0.99558641E+00
  0.94968900E+00  0.25531183E+00  0.98223352E+00
  0.94795052E+00  0.41855837E+00  0.37107367E-01
  0.95144576E+00  0.58692227E+00  0.98565213E+00
  0.94655072E+00  0.74891628E+00  0.95711733E+00
  0.94779430E+00  0.91896899E+00  0.97394080E+00
  0.61907817E-01  0.65842017E-02  0.74447388E+00
  0.10660937E+00  0.33638502E+00  0.41044433E+00
  0.54201661E+00  0.21716971E+00  0.80470675E+00
  0.67082269E+00  0.91333070E+00  0.16997688E+00