BoronNitride_doped_AlatN                
   1.0000000000000000     
    17.3520000000000003    0.0000000000000000    0.0000000000000000
     0.0000000000000000   15.0272728064999992    0.0000000000000000
     0.0000000000000000    0.0000000000000000   10.6393173196999999
   B    N    Al
    48    47   129
Direct
  0.9954402712972465  0.0058239262853023  0.0027377563139085
  0.9948363721846654  0.1728001937211001  0.0028572979454822
  0.9946658491877642  0.3396195143747646  0.0021355231179527
  0.9953523906857343  0.5065613602420320  0.0054147249959096
  0.9961596063238891  0.6728232157775313  0.0018578437410355
  0.9956804803175610  0.8397656058463632  0.9966652839627413
  0.1194468351939137  0.0898798803355349  0.9853331948767488
  0.1192572613325817  0.2557698438797837  0.0072677136629297
  0.1205005679631400  0.4229196234496201  0.0120404077534686
  0.1203269985800739  0.5887380579849680  0.0198495819849387
  0.1207877460527056  0.7550471465083736  0.0075603627104619
  0.1199901546041192  0.9225087304010752  0.9890333726389940
  0.2482043256235124  0.0050917663663875  0.9640309840086364
  0.2433255321263350  0.1691564242501602  0.0341798152168905
  0.2462539907010003  0.3379551587995390  0.9716869988495951
  0.2456126031372714  0.5030902017538076  0.0055880296739270
  0.2492820710001456  0.6717662145967982  0.0453106870691290
  0.2465396054953785  0.8358995341750721  0.9750071552033689
  0.3709905448699906  0.0873970327597750  0.0185045736259106
  0.3702703275060555  0.2550233127428059  0.0188704626422884
  0.3665001873800828  0.4205286510120501  0.0581599072401603
  0.3722442829189326  0.5851982731322455  0.9788025815668739
  0.3724280059169791  0.7551911091969474  0.9951728369260848
  0.3710988151518663  0.9204050316230890  0.0162972007133448
  0.4959173930304902  0.0061353808348817  0.0137032551694607
  0.4959165967607403  0.1736302687342691  0.0205426450792079
  0.4912490859784972  0.3485350531543122  0.0375202166836996
  0.5047730623673510  0.5424630252289285  0.0621200195334494
  0.4984903031308888  0.6678122553042559  0.0079278867516325
  0.4957804905709567  0.8379047036829967  0.0138629989753628
  0.6204767036179205  0.0914872727727479  0.0191240090135480
  0.6195711566133324  0.2612684883173080  0.0222186044969380
  0.6192125480329209  0.4291763562162348  0.0180392215255484
  0.6240691225734474  0.5927267274685586  0.9771374823139003
  0.6216007305244667  0.7574689241568944  0.9657334878823149
  0.6204046870908002  0.9251651361421817  0.9985116434644052
  0.7439652139075159  0.0073497356370039  0.0192610642510083
  0.7444165286997749  0.1764269885703003  0.0520576898895138
  0.7436560743886086  0.3404605311661798  0.9975764385044272
  0.7468625189244157  0.5084422336762215  0.9723392170603952
  0.7472144872839974  0.6753700727290001  0.9659276052893913
  0.7445134642719408  0.8412908263481109  0.9895319683768540
  0.8698562054472180  0.0902852033287288  0.0377519599582943
  0.8695459994583373  0.2574023698815438  0.0009485930476019
  0.8703941961680168  0.4239169034188500  0.9817055584262325
  0.8714461191083767  0.5900094913941956  0.9791532934443778
  0.8717882065001727  0.7554923438101824  0.9923809588368618
  0.8709535874700807  0.9247061629583342  0.0144700059998050
  0.0779783375011853  0.0058358861107364  0.9840083700404992
  0.0782387423567327  0.1728298668269741  0.0012996231705576
  0.0781134091141749  0.3395938406447069  0.0031796896360501
  0.0782301015607825  0.5058584797594777  0.0195694938956218
  0.0792467406640987  0.6720457453344771  0.0066877130022114
  0.0791534113283077  0.8385571739029153  0.9882119566703125
  0.2037417534399501  0.0908549071526881  0.9790570238041069
  0.2023398502118207  0.2560681380731970  0.0206161649529850
  0.2032342312726606  0.4215847845080686  0.0066980049067434
  0.2045169338500403  0.5867426976299913  0.0290117476800230
  0.2037113158250128  0.7560325837238131  0.0292330756454612
  0.2037233414122083  0.9228164168360289  0.0019122374014376
  0.3297368466046028  0.0045879333225089  0.0106852171325153
  0.3288381523785514  0.1706934186282753  0.0257237443974089
  0.3259510609000484  0.3373844947328007  0.0340779502905028
  0.3308903106193887  0.5013269833812265  0.9993513619432013
  0.3282642925499081  0.6699533647229589  0.9827048174416059
  0.3305252779436025  0.8374135575717131  0.0056163476167243
  0.4544419832447353  0.0898356741825037  0.0150344408930837
  0.4540823926572546  0.2568082681986673  0.0317851172659155
  0.4558592254820311  0.5863161068535813  0.9573353251312582
  0.4553624950701026  0.7538321649174070  0.0069585752490063
  0.4547851358590158  0.9220466466539906  0.0207468532850811
  0.5789684335400019  0.0074365888956874  0.0119977751388994
  0.5788547717454345  0.1754176681015681  0.0224662222778514
  0.5780442064387289  0.3461737507749336  0.0296718725774079
  0.5825363393704045  0.5148117299071829  0.0150876707612821
  0.5815195403158022  0.6745751642039414  0.9724623105945378
  0.5781451166258142  0.8413278855338490  0.9784589100894742
  0.7030791038693698  0.0912909275451391  0.0232789377037298
  0.7027621271828541  0.2603643056510361  0.0220789753797081
  0.7016532019891788  0.4248264282435402  0.9772987184507942
  0.7065201507084201  0.5918411827236443  0.9615674596318214
  0.7050110016548348  0.7580991495487193  0.9751641699277039
  0.7032879257809866  0.9240313235168931  0.0011678378652100
  0.8277892840511114  0.0058528834701271  0.0239902057960380
  0.8272532118918233  0.1733522374324379  0.0011391741400941
  0.8278592962210465  0.3409501979644683  0.9944843242846949
  0.8299846596110868  0.5071226116095057  0.9710463863688634
  0.8300915320671169  0.6736210553544028  0.9788029232522697
  0.8295287691200145  0.8406577806603213  0.9916240546048711
  0.9538601063153219  0.0892869353041032  0.0132911360724032
  0.9525549872265704  0.2562345659643203  0.0024189875995924
  0.9535439739079201  0.4234694408320095  0.9942669924925139
  0.9540071558010050  0.5898861155829004  0.9982721878187202
  0.9546164946880970  0.7562023486806474  0.9968184190728672
  0.9540871029526388  0.9226938621202995  0.0080898578134164
  0.0677042405339785  0.0539289031121062  0.7242071975459986
  0.1027905149877410  0.3512955740845668  0.2939056184385416
  0.5956832727362701  0.2580755983340969  0.7904427134687254
  0.6002633876127816  0.8467369791924259  0.2432576044424692
  0.7289937184772808  0.2631326017130972  0.7018594276470140
  0.0063642149787021  0.2207976198991736  0.7468872286648345
  0.5537621365889974  0.6979428620421091  0.3979593500330639
  0.4655722354382289  0.2555400984427287  0.6897519858952256
  0.9237931436861456  0.0813538744126190  0.7238812322687170
  0.7652485615357023  0.1697759943396479  0.2651909084708727
  0.4854441139530870  0.5527819831866659  0.7844526306739782
  0.1277082851872768  0.7653132029625201  0.4874524215978376
  0.8932777315176323  0.5608987035760578  0.6622027035029993
  0.2161823386357168  0.5899169411101599  0.2308023330728262
  0.4792449935408131  0.6242878904751729  0.2234844542808486
  0.8021362741794681  0.4106065665457249  0.6608103994139507
  0.6643339595539565  0.3543498451901096  0.2738699687092874
  0.6965528704302698  0.8736208844608864  0.7138861555445345
  0.9755586002988215  0.8051806221962521  0.4811624977786069
  0.1536530140413162  0.3807401868763546  0.5342706909950634
  0.3887233499672574  0.7864013109240818  0.7249843241847264
  0.1713985155729347  0.9418139581118448  0.6584441147199599
  0.6747836211265529  0.4168651961838798  0.7835915801116238
  0.0930014041438694  0.6648530455504307  0.2925042497180674
  0.8374918428237804  0.8542113923817521  0.7965869242968007
  0.4812299411979317  0.5483198420470632  0.4594348599001165
  0.7394663826060998  0.5648171318850762  0.7029674514107941
  0.3463846843739030  0.1864604850079183  0.2377682089078182
  0.2960708977222505  0.2935118804664643  0.5818232017238064
  0.4445696196216701  0.0622287113725535  0.5414816247543485
  0.5496821123984498  0.4094418718477964  0.6543376166329299
  0.4781050344317362  0.2769060826470476  0.2253580640034921
  0.9485830930577527  0.9489175308625930  0.3199344900883432
  0.7333261221054942  0.8259514623537551  0.3288372839457122
  0.3335710100411082  0.4767720847696374  0.7903450313618692
  0.4031443904613386  0.7204888580121360  0.4557537738134426
  0.8717811974474468  0.0389047469300049  0.4921886425709842
  0.4580415373163107  0.2323442753133418  0.4577964267191723
  0.3451937686653638  0.2982523315068640  0.8134258712830955
  0.5046754524571215  0.6922008151459813  0.6379751896119820
  0.8164741030727038  0.3476460916465176  0.2388893418731674
  0.4820396204001474  0.1049168026383976  0.2826504689918306
  0.4444648750954495  0.9518218014933852  0.7642358845584061
  0.9438520190518430  0.7307260870427262  0.7191008359413718
  0.7933178717146879  0.7208764227474237  0.6818442200107973
  0.8938082867500514  0.2251790331902481  0.3867472899056649
  0.8037933430162573  0.1495948130298999  0.8207643517002161
  0.5209471304354207  0.9560151772121949  0.3739687319244133
  0.6138081527566402  0.8259600935396191  0.5064717854185274
  0.1812068888277037  0.5095619439966440  0.7386970084287925
  0.7945516853080246  0.0007572388002063  0.7006960077117744
  0.6560862108898878  0.6796616886284932  0.2199871034048237
  0.4578498167704025  0.8106690332609526  0.2620308937790669
  0.2958429449758956  0.6543838668748030  0.7942696485480155
  0.5184228681855233  0.1034271793568656  0.7579097198685835
  0.3190667844524374  0.8535656449278637  0.3136662050935197
  0.7472596700681737  0.1370015515332884  0.5130359225340505
  0.3536265840676429  0.5286977137176261  0.3327944662903949
  0.7062298564205256  0.9664541608479985  0.4950248309072645
  0.5478523180370747  0.8263645645012430  0.7745902462503239
  0.6485782743260872  0.0260645585549389  0.2754912993358014
  0.2116886999905295  0.0971756618402650  0.7818847677342661
  0.9271425791666766  0.1027525432341392  0.2351712756281075
  0.0086272697934387  0.6381332620676474  0.5115028071235727
  0.0620893407200459  0.8378706254519285  0.2675319813024408
  0.6718571361898040  0.4282358472888755  0.5087530497510663
  0.2325624215040077  0.2972338659905296  0.1912352423037592
  0.6030305425391519  0.5636597845033953  0.6070568107014510
  0.7055229876040326  0.6735620870997171  0.4660228525484182
  0.3556039312113343  0.1316945934043150  0.7169566204233547
  0.8633840368765027  0.6844940472793305  0.4761027408202468
  0.0379134159685669  0.5832210507772700  0.7525214983008557
  0.3775614865287719  0.5951644577273838  0.6181926765138256
  0.0486702014028496  0.9521245061570779  0.5081731485660435
  0.3174418837071402  0.1468744555589075  0.4687125051509313
  0.2297661235582104  0.8082095602687078  0.7761473205057419
  0.7365626695112859  0.5055074880577471  0.2303699639511736
  0.0581063130822441  0.1877627110045494  0.2917508535289880
  0.1438123474910987  0.2182096183627408  0.6494838321856721
  0.6670096190529461  0.0910210012970135  0.7288134363440587
  0.0313891742055340  0.5048421245205333  0.3155529959914054
  0.8026021994287079  0.6629423623395816  0.2478537638038324
  0.9357203294328776  0.3876317736138798  0.7347930318933446
  0.2160812595814290  0.3457685159383218  0.7692190394379922
  0.7643730382819626  0.3028130330030978  0.4600796958072284
  0.1807509549116746  0.9134454054606913  0.4111194693124878
  0.3527627161544060  0.3467372240589234  0.3452199930011262
  0.6479547619802766  0.7077351559082492  0.7070140563102142
  0.5293633564049407  0.3848399561172664  0.3979974525367767
  0.6104283849549057  0.1969856893208529  0.2944685023714450
  0.5687073213694886  0.9613905015729547  0.6355810132102189
  0.9627032184822758  0.3483237677645964  0.2548252051037618
  0.8741547065833167  0.2414077564631322  0.6275093502707018
  0.8999360292594648  0.4042145468215835  0.4687463375862509
  0.0195299344223781  0.2946923834868785  0.5058553263363378
  0.1934784299432602  0.2398366353802880  0.4125100891302289
  0.2786083443943205  0.8159889930677594  0.5486207389706049
  0.3026169117948183  0.9633340258725993  0.7714512954184356
  0.5911990328932362  0.0967695587873078  0.4962478253716032
  0.2627142716362731  0.6565160408754636  0.4615863645247925
  0.8304848785799502  0.8608091177774083  0.5247462948785173
  0.1615135020018281  0.6705698392592041  0.6845632489702445
  0.8740469111613198  0.8139771943633985  0.2777315038932101
  0.7934824968365767  0.5267654482076961  0.4626917430005623
  0.0778103347065691  0.8115907305183291  0.7206132658640814
  0.6085337794318131  0.5325981842423143  0.3343858470221610
  0.4108276070180588  0.4061847200927565  0.5679615012167418
  0.3381537699210369  0.6882616408390428  0.2359527299419243
  0.9555554753567492  0.9139034656796540  0.6919141461297954
  0.3485013362059142  0.0168270112191294  0.2765688467275411
  0.1441421265627677  0.5584190300787044  0.4839672491844627
  0.2115338347701468  0.9419906748907830  0.1846001129747064
  0.7997180782515741  0.9882048920015950  0.2804561348375648
  0.0811540304575809  0.0181106238681715  0.2716722031367163
  0.2098262917029881  0.1100384484640174  0.2498226235360568
  0.8848701191764773  0.5082691216886692  0.2622936811528874
  0.0233975802576830  0.4706131081735313  0.5651213004767605
  0.0767431207226895  0.3746657945029085  0.7545777175270070
  0.2239461655408774  0.4385954282915544  0.3250366782641859
  0.9518423869995584  0.6672389964401114  0.2699658072484597
  0.3004603734663642  0.9878948988089720  0.5185175186002524
  0.1619454351113417  0.0806932316970375  0.4929228099612195
  0.2024648486522226  0.7661293881555712  0.2250778593898201
  0.6114076634229593  0.2653915661564193  0.5362084510918000
  0.0051385760465209  0.1222138482534335  0.5087060003806473
  0.4269598453488098  0.8853724808121333  0.5283073461349220
  0.2769266864988048  0.4797260574246726  0.5453496823731302
  0.4566030209207934  0.4455092918585479  0.1913406693314259
  0.4666659447163521  0.3901139453075412  0.8458530737276454

 -0.10392406E-02 -0.74491930E-03 -0.63415524E-03
  0.20687058E-03 -0.54610857E-04 -0.25404930E-03
  0.11709199E-04  0.77044539E-03  0.88722197E-03
 -0.54905841E-03  0.44197233E-03  0.22045334E-04
 -0.33097426E-03  0.41077661E-03 -0.23935750E-03
 -0.79710828E-03 -0.67926214E-03  0.22248061E-04
  0.24827554E-04 -0.40864908E-04 -0.14102585E-03
 -0.47503173E-03  0.29465756E-03 -0.20699870E-04
 -0.17457165E-03  0.14090117E-03  0.44793872E-03
 -0.58528581E-03 -0.76199496E-04 -0.28989510E-03
 -0.88370590E-03 -0.68735542E-03 -0.92796372E-03
 -0.76514465E-03 -0.38790666E-03 -0.53636451E-03
 -0.50837310E-03 -0.15147980E-03 -0.21671720E-03
  0.24688796E-03  0.23859517E-03  0.28727160E-03
  0.19209653E-03  0.49033824E-04  0.69324190E-03
  0.36863985E-03  0.90688426E-04  0.56501750E-03
 -0.39695452E-03 -0.31913980E-03 -0.63220823E-03
  0.16373750E-03 -0.99434354E-04  0.76930523E-03
  0.94874773E-04 -0.26018934E-03 -0.24308507E-03
  0.15112148E-03  0.32368762E-03  0.39418885E-03
 -0.39809334E-03 -0.35955737E-03 -0.28850507E-03
 -0.18997415E-03 -0.11482916E-03 -0.64865879E-05
  0.31602878E-03  0.10199375E-02  0.25616915E-03
 -0.31820162E-03  0.12511884E-03 -0.12080769E-04
 -0.49271891E-04 -0.21997536E-03 -0.10151018E-03
 -0.93819846E-04 -0.38861831E-04  0.56292956E-03
  0.21275962E-03 -0.76679915E-03 -0.17174535E-03
  0.22716822E-03  0.10878536E-03 -0.63793371E-03
 -0.13590676E-03  0.46677384E-03 -0.10219408E-02
 -0.65244174E-04  0.13269169E-03 -0.24833723E-03
  0.19093071E-03  0.40428045E-04 -0.80667387E-04
  0.55673681E-04  0.72989229E-04 -0.20330569E-03
 -0.21343522E-03 -0.30922145E-03 -0.18603443E-03
 -0.20482327E-03  0.12824033E-04  0.76576636E-03
  0.20606405E-03  0.10773392E-03  0.45426617E-03
 -0.19325735E-04 -0.65738480E-04  0.22714339E-03
  0.10586990E-02 -0.15708349E-03 -0.39640762E-04
  0.38116587E-03 -0.55278821E-04 -0.26319198E-03
  0.33722311E-03 -0.15135696E-03 -0.71131511E-04
  0.20730618E-03  0.16821068E-03 -0.95235792E-03
  0.92154563E-03 -0.16730608E-04  0.80803220E-03
  0.88313019E-04  0.20350552E-04 -0.13160885E-03
  0.95176152E-04 -0.64454543E-03 -0.19679719E-03
  0.47904797E-03 -0.16255401E-03  0.23850936E-04
  0.19630052E-03 -0.25980674E-03  0.22486701E-03
  0.89241066E-03  0.70092396E-03  0.25036850E-03
  0.15352654E-02  0.35426566E-03  0.28159502E-03
  0.83271021E-03 -0.27759203E-03  0.10897862E-03
  0.27156821E-03  0.38652813E-04  0.67839295E-03
  0.17593305E-03 -0.73070082E-04 -0.30114722E-03
  0.12247808E-03 -0.60136910E-03 -0.25565892E-03
  0.77888121E-03 -0.19637015E-03 -0.60001711E-04
  0.10375156E-02 -0.46938171E-04  0.88814924E-03
  0.11812354E-02  0.20897424E-03  0.46216372E-03
 -0.33709917E-03  0.29747196E-04 -0.46600762E-03
  0.12757069E-03  0.28508940E-03 -0.33349343E-03
 -0.21501485E-03  0.16604876E-03 -0.11582867E-03
 -0.38119316E-03  0.22402912E-03  0.23616762E-03
 -0.38310572E-03  0.17429555E-03 -0.42822184E-03
 -0.27595987E-03  0.56528643E-03 -0.12318337E-03
  0.39613424E-03  0.28675460E-03  0.15831984E-04
  0.28986480E-03 -0.13986849E-03  0.66295169E-04
  0.18649622E-04  0.16540601E-03  0.13476570E-03
  0.44209882E-04  0.41369991E-03  0.25037452E-03
  0.14133713E-04  0.36932167E-03 -0.22624013E-03
  0.32633217E-03 -0.22659357E-03 -0.72209503E-04
  0.69867369E-03 -0.48530199E-03  0.58599222E-03
 -0.24358099E-04 -0.35096551E-03  0.46716870E-03
 -0.18946187E-03  0.16325399E-03  0.27158917E-03
  0.42125812E-03 -0.94463269E-04  0.15568756E-03
 -0.13498770E-03  0.17463846E-03 -0.22402531E-03
  0.21723486E-03 -0.43796870E-03 -0.49416046E-03
 -0.30899969E-03  0.38594021E-04  0.17884061E-03
  0.11086402E-03  0.54483703E-03  0.57133215E-04
  0.64917105E-04  0.35180940E-03  0.19529243E-03
  0.37036584E-03 -0.17312202E-03  0.20267212E-03
  0.12315413E-04 -0.45292342E-03  0.54925302E-03
  0.24414598E-03 -0.59859502E-03 -0.26320663E-03
  0.67414183E-04 -0.20152856E-06 -0.31619742E-03
  0.76389422E-04 -0.59330698E-04 -0.54486199E-03
  0.16069075E-03 -0.56697609E-03 -0.31725318E-03
 -0.13854208E-03  0.13916622E-03 -0.67962943E-04
 -0.28205231E-03  0.59075149E-03  0.10259005E-04
 -0.18373431E-03  0.10553436E-03  0.31573739E-03
  0.17533733E-03  0.60362802E-03  0.17175354E-03
 -0.56582223E-04 -0.31002711E-03 -0.10825464E-04
 -0.51583710E-03 -0.31620571E-03 -0.98133199E-04
 -0.73618832E-03 -0.41511817E-03  0.24933950E-03
 -0.48037833E-03  0.15766697E-03  0.12167525E-03
  0.43489987E-03 -0.79595509E-04  0.15292011E-03
 -0.46959327E-04  0.99677429E-04 -0.36700698E-03
 -0.51165256E-04 -0.46688200E-03 -0.29202860E-03
  0.16525282E-04 -0.13961534E-02 -0.48114350E-03
 -0.20772274E-03  0.16970211E-03  0.14258368E-03
  0.24114883E-03  0.10164776E-02 -0.24563570E-03
  0.26286713E-03  0.11090019E-03 -0.47720260E-04
  0.14181361E-03  0.72376202E-04 -0.16531568E-03
  0.60166799E-04  0.66001145E-04  0.13100324E-04
  0.74500922E-04 -0.21045039E-04 -0.14347956E-03
  0.10638918E-03  0.14974214E-04 -0.33380051E-03
 -0.18995394E-03 -0.25065024E-05 -0.32496699E-03
  0.15436547E-04 -0.26446491E-03  0.30769165E-03
 -0.15828939E-03  0.80053145E-04 -0.25695240E-03
  0.20248820E-03 -0.73986406E-04  0.78300144E-04
  0.14265020E-03 -0.13748710E-03 -0.18115874E-03
 -0.31441589E-03  0.64140989E-04 -0.11313269E-03
 -0.10297739E-03 -0.28118201E-03 -0.18202175E-04
 -0.18559401E-04 -0.14933852E-04  0.12360425E-03
  0.20353258E-03 -0.34501095E-03 -0.20024071E-03
 -0.17516721E-03 -0.47581444E-03  0.14962555E-03
 -0.37535408E-03  0.54498713E-04 -0.13248333E-03
 -0.30643665E-03  0.26892535E-03  0.69849698E-04
 -0.15159750E-03  0.14392626E-03 -0.14213108E-03
 -0.30748299E-03  0.23542529E-03  0.74974307E-04
  0.79708550E-04  0.47126844E-03 -0.69796884E-04
  0.21351315E-03  0.21302092E-03  0.13632309E-03
  0.25041051E-03 -0.22399640E-03 -0.29020257E-03
 -0.20634293E-03 -0.78437986E-04  0.63752714E-04
 -0.21979417E-03  0.53966186E-04  0.66811048E-04
 -0.43924021E-04 -0.27710732E-05 -0.11565556E-03
 -0.10657744E-04 -0.30583923E-03 -0.10060838E-03
 -0.66545546E-04 -0.99184221E-04  0.54587251E-04
  0.54329680E-04 -0.21360854E-03  0.17979557E-03
  0.13191247E-03  0.11604479E-04 -0.44570402E-03
  0.10919851E-03 -0.50017530E-03 -0.74520151E-03
  0.17203826E-03 -0.15350145E-03 -0.42570744E-04
  0.44853269E-04 -0.34921853E-03 -0.19912177E-03
  0.24807094E-03  0.82994823E-04  0.78916107E-04
 -0.14252279E-03 -0.22941938E-03  0.22214298E-03
 -0.33165842E-03  0.15985308E-03 -0.25405904E-03
  0.84140742E-04  0.55117147E-04  0.47344226E-03
  0.17059268E-03  0.17880590E-03  0.17901251E-03
 -0.45331792E-03 -0.10604044E-03 -0.57329277E-04
  0.64344521E-05 -0.39317249E-03 -0.12899162E-03
 -0.11485162E-03  0.41442774E-03 -0.22330385E-03
 -0.25237047E-03  0.17387401E-03 -0.24722585E-03
 -0.16940343E-03 -0.22102741E-03 -0.12873738E-03
 -0.87595377E-04  0.27448470E-03  0.39309875E-04
  0.43495982E-05 -0.16173289E-03 -0.37256997E-03
  0.36567830E-04 -0.14897833E-03 -0.59936922E-04
 -0.14187629E-03 -0.17887642E-03  0.96438675E-04
 -0.20391471E-03  0.11840354E-03 -0.11838703E-03
  0.15061819E-03 -0.12357107E-03  0.18934522E-04
  0.71705322E-04  0.11816425E-03  0.17202407E-03
 -0.16923542E-03  0.39901675E-03  0.93086897E-04
  0.20374691E-03  0.27458822E-05 -0.20402672E-03
 -0.11661994E-03 -0.11328202E-03 -0.79126870E-04
 -0.32175412E-03 -0.14183032E-03  0.28053681E-03
 -0.36668031E-03 -0.19840515E-03  0.31634244E-03
 -0.17571354E-03  0.20035613E-04 -0.83669033E-04
  0.14691421E-03  0.84653030E-04  0.36303475E-03
 -0.34429877E-03 -0.23864068E-03  0.13983557E-03
 -0.17423619E-03  0.33245256E-03 -0.16312602E-03
 -0.15088273E-03 -0.98364956E-05  0.16995823E-03
 -0.27402717E-04  0.15883356E-03  0.12009193E-03
  0.24322327E-03 -0.13632322E-03 -0.12231987E-03
  0.23488263E-03  0.14544082E-03 -0.48669971E-04
  0.13290346E-03 -0.82228612E-04  0.18985579E-03
  0.26300297E-03 -0.81406687E-04 -0.44194868E-04
  0.10447523E-06  0.76641834E-04  0.41522707E-03
 -0.27938716E-04  0.21433948E-03 -0.76036317E-04
  0.44052250E-04 -0.51305330E-03  0.43399650E-04
  0.18390021E-05  0.28669289E-03 -0.45220502E-03
 -0.49654380E-04  0.74280484E-05  0.40209800E-03
 -0.26489123E-03 -0.13090437E-03 -0.10317073E-03
  0.28224750E-04  0.89691154E-04  0.13390733E-04
 -0.29552666E-03  0.61967166E-04 -0.85919338E-04
 -0.66082640E-04 -0.11166090E-03  0.29201349E-03
  0.26579698E-03  0.28198492E-03  0.98451961E-04
 -0.16447164E-03  0.48930159E-03 -0.28395861E-03
 -0.15703878E-03  0.27599387E-04 -0.94197895E-04
  0.87814959E-04  0.39742987E-04 -0.13048782E-03
 -0.22148924E-03  0.40624004E-03 -0.11801157E-03
 -0.26276822E-03  0.32105962E-04  0.34938677E-04
 -0.92370821E-04  0.15542962E-03 -0.90958465E-04
  0.52177994E-04  0.22777086E-03  0.21133004E-03
 -0.25815169E-03 -0.48866118E-04  0.14225508E-03
  0.51482927E-04  0.13721894E-03 -0.21374493E-03
  0.60345555E-04  0.28605738E-04 -0.17054505E-03
 -0.15830220E-06 -0.14653641E-03  0.66196794E-04
  0.60928591E-04  0.11099985E-03  0.20720967E-05
  0.23402538E-03  0.70992635E-04  0.21988267E-04
 -0.10097045E-03  0.30338582E-03  0.43206071E-04
 -0.24900061E-04  0.18757102E-03  0.63833282E-04
  0.26744203E-03 -0.61946232E-04  0.22656629E-03
  0.42419513E-03  0.76754181E-04  0.26652785E-04
 -0.12973710E-03 -0.15957372E-03 -0.32239551E-03
 -0.23811416E-04 -0.39344058E-04  0.40108316E-03
 -0.28753399E-03 -0.36814744E-03 -0.20622056E-04
  0.29653551E-03  0.87654010E-04 -0.25888039E-04
 -0.92121455E-04 -0.80040455E-04  0.50736133E-03
 -0.18606313E-03  0.30626845E-04  0.10548081E-03
 -0.11432711E-03 -0.25526306E-03 -0.24681663E-03
 -0.10895113E-04  0.28484461E-03 -0.15674628E-03
  0.23360075E-03  0.34075639E-04  0.17303692E-03
  0.11947442E-03  0.16750708E-03 -0.57648573E-04
  0.17731812E-03  0.39688946E-03 -0.20653766E-03
  0.56638662E-04  0.37170515E-04 -0.31524015E-03
 -0.87080766E-04  0.22861422E-03  0.11211729E-03
 -0.11038326E-03 -0.16325659E-04 -0.52235133E-04
 -0.29223095E-03  0.80092010E-04 -0.23276621E-04
  0.31281007E-03  0.31262101E-03  0.25976240E-03
  0.41438167E-04  0.62628519E-04 -0.42423175E-03
  0.63945705E-04  0.33232130E-03 -0.60635601E-04
  0.14341859E-03 -0.57395135E-04  0.40681715E-03
 -0.11063656E-03 -0.26243984E-03  0.10503821E-04
  0.17528408E-04  0.44010481E-03  0.37145699E-03
  0.33360852E-04 -0.22356370E-03 -0.71528086E-04
  0.25305497E-04 -0.10759680E-03  0.92718352E-05
  0.66255110E-05  0.31282077E-03  0.18173963E-03
 -0.71598201E-04 -0.13897779E-04  0.13174066E-03
  0.10642156E-03 -0.94816661E-04 -0.80280327E-04
  0.37828764E-03  0.21980541E-03  0.15302579E-03
 -0.59065756E-04  0.11485775E-03 -0.14343260E-03
 -0.19026630E-03 -0.39487161E-03  0.13803461E-03
  0.24345247E-03 -0.44943026E-03  0.50768347E-03
 -0.99670518E-06 -0.23601020E-03 -0.29167282E-04
  0.10481170E-03  0.62747583E-04  0.35569153E-03
 -0.62500215E-04 -0.32974568E-03  0.94490036E-04
  0.14271812E-04  0.92675022E-04  0.76930439E-04
  0.41347167E-03 -0.44468919E-03 -0.24385184E-03
  0.86484601E-04 -0.13610898E-03  0.16583269E-03
 -0.17650103E-03  0.16024787E-03  0.25090237E-03
 -0.56717732E-03  0.53644686E-04 -0.41476363E-04

           1
  0.54731196234688684     
  0.89948122E+00 -0.16019546E-01 -0.80241981E-03  0.00000000E+00
  0.99540749E+00  0.57967954E-02  0.27051338E-02
  0.99484290E+00  0.17279820E+00  0.28442290E-02
  0.99466622E+00  0.33964757E+00  0.21811639E-02
  0.99533507E+00  0.50657746E+00  0.54158591E-02
  0.99614917E+00  0.67283818E+00  0.18455306E-02
  0.99565534E+00  0.83974087E+00  0.99666643E+00
  0.11944762E+00  0.89878392E-01  0.98532594E+00
  0.11924228E+00  0.25578058E+00  0.72666488E-02
  0.12049506E+00  0.42292476E+00  0.12063451E-01
  0.12030854E+00  0.58873528E+00  0.19834669E-01
  0.12075987E+00  0.75502211E+00  0.75126260E-02
  0.11996602E+00  0.92249460E+00  0.98900578E+00
  0.24818829E+00  0.50862493E-02  0.96401984E+00
  0.24333332E+00  0.16916511E+00  0.34194593E-01
  0.24626005E+00  0.33795694E+00  0.97172266E+00
  0.24562423E+00  0.50309350E+00  0.56170955E-02
  0.24926955E+00  0.67175459E+00  0.45278165E-01
  0.24654477E+00  0.83589591E+00  0.97504673E+00
  0.37099354E+00  0.87387556E-01  0.18492069E-01
  0.37027509E+00  0.25503510E+00  0.18890741E-01
  0.36648763E+00  0.42051556E+00  0.58145066E-01
  0.37223829E+00  0.58519409E+00  0.97880225E+00
  0.37243797E+00  0.75522826E+00  0.99518601E+00
  0.37108878E+00  0.92040959E+00  0.16296579E-01
  0.49591584E+00  0.61273691E-02  0.13698033E-01
  0.49591364E+00  0.17362885E+00  0.20571604E-01
  0.49125580E+00  0.34850713E+00  0.37511382E-01
  0.50478023E+00  0.54246699E+00  0.62087203E-01
  0.49848602E+00  0.66782926E+00  0.78753157E-02
  0.49577843E+00  0.83790954E+00  0.13850224E-01
  0.62048273E+00  0.91488745E-01  0.19119859E-01
  0.61957291E+00  0.26127115E+00  0.22208146E-01
  0.61920582E+00  0.42916509E+00  0.18029651E-01
  0.62406266E+00  0.59272719E+00  0.97717688E+00
  0.62160723E+00  0.75747285E+00  0.96575686E+00
  0.62040408E+00  0.92516274E+00  0.99852333E+00
  0.74399861E+00  0.73440145E-02  0.19259025E-01
  0.74442855E+00  0.17642498E+00  0.52044151E-01
  0.74366671E+00  0.34045502E+00  0.99757278E+00
  0.74686906E+00  0.50844836E+00  0.97229023E+00
  0.74724355E+00  0.67536946E+00  0.96596917E+00
  0.74451625E+00  0.84129157E+00  0.98952520E+00
  0.86985921E+00  0.90261728E-01  0.37741836E-01
  0.86956111E+00  0.25739645E+00  0.94982000E-03
  0.87040039E+00  0.42390744E+00  0.98171713E+00
  0.87147427E+00  0.59003502E+00  0.97916617E+00
  0.87183663E+00  0.75550525E+00  0.99239544E+00
  0.87097985E+00  0.92469605E+00  0.14475612E-01
  0.77986903E-01  0.58372939E-02  0.98404327E+00
  0.78244292E-01  0.17282721E+00  0.12841314E-02
  0.78117272E-01  0.33957194E+00  0.31665379E-02
  0.78254669E-01  0.50585133E+00  0.19566407E-01
  0.79279466E-01  0.67204404E+00  0.67334015E-02
  0.79190670E-01  0.83856479E+00  0.98823573E+00
  0.20373112E+00  0.90855991E-01  0.97903305E+00
  0.20234387E+00  0.25607852E+00  0.20599009E-01
  0.20322745E+00  0.42159083E+00  0.66920464E-02
  0.20450491E+00  0.58675086E+00  0.29023897E-01
  0.20369923E+00  0.75603893E+00  0.29211047E-01
  0.20371464E+00  0.92283701E+00  0.19059006E-02
  0.32974934E+00  0.45983773E-02  0.10686032E-01
  0.32884730E+00  0.17068832E+00  0.25727155E-01
  0.32595165E+00  0.33739052E+00  0.34084883E-01
  0.33089171E+00  0.50134205E+00  0.99936424E+00
  0.32826474E+00  0.66996682E+00  0.98269318E+00
  0.33053557E+00  0.83740530E+00  0.56126330E-02
  0.45446402E+00  0.89817999E-01  0.15064586E-01
  0.45408162E+00  0.25679549E+00  0.31809150E-01
  0.45585325E+00  0.58632205E+00  0.95734930E+00
  0.45537578E+00  0.75382872E+00  0.69665842E-02
  0.45478088E+00  0.92205301E+00  0.20735329E-01
  0.57897529E+00  0.74206375E-02  0.11972354E-01
  0.57884503E+00  0.17541907E+00  0.22475422E-01
  0.57804770E+00  0.34619359E+00  0.29674812E-01
  0.58253839E+00  0.51482454E+00  0.15097717E-01
  0.58153122E+00  0.67456886E+00  0.97247274E+00
  0.57814551E+00  0.84131139E+00  0.97848716E+00
  0.70308680E+00  0.91269126E-01  0.23265398E-01
  0.70276425E+00  0.26036430E+00  0.22062709E-01
  0.70165561E+00  0.42482427E+00  0.97727069E+00
  0.70652522E+00  0.59182053E+00  0.96155114E+00
  0.70500663E+00  0.75810422E+00  0.97516067E+00
  0.70327903E+00  0.92405284E+00  0.11683656E-02
  0.82778349E+00  0.58567272E-02  0.24006448E-01
  0.82725874E+00  0.17337422E+00  0.11480096E-02
  0.82785751E+00  0.34093891E+00  0.99448377E+00
  0.82996839E+00  0.50711110E+00  0.97104134E+00
  0.83006831E+00  0.67360594E+00  0.97881575E+00
  0.82951362E+00  0.84066352E+00  0.99163031E+00
  0.95387382E+00  0.89284036E-01  0.13299003E-01
  0.95255351E+00  0.25623820E+00  0.24001079E-02
  0.95354236E+00  0.42345244E+00  0.99425197E+00
  0.95400768E+00  0.58983527E+00  0.99824744E+00
  0.95460994E+00  0.75620853E+00  0.99682575E+00
  0.95409471E+00  0.92273088E+00  0.80772217E-02
  0.67712532E-01  0.53932942E-01  0.72420474E+00
  0.10279499E+00  0.35129821E+00  0.29389711E+00
  0.59568517E+00  0.25807800E+00  0.79044339E+00
  0.60026574E+00  0.84673621E+00  0.24325022E+00
  0.72899707E+00  0.26313315E+00  0.70184226E+00