BoronNitride_doped_AlatN                
   1.00000000000000     
    17.3520000000000003    0.0000000000000000    0.0000000000000000
     0.0000000000000000   15.0272728064999992    0.0000000000000000
     0.0000000000000000    0.0000000000000000   10.6393173196999999
   B    N    Al
    48    47   129
Direct
 -0.0043600615927509  0.0059929039695955  0.0028936562325103
 -0.0051959995795313  0.1728142296541439  0.0029220266965217
 -0.0053338609846321  0.3394541051885691  0.0019129969517933
 -0.0045370241850363  0.5064434330236702  0.0054105457374193
 -0.0037679488886266  0.6727196994746611  0.0019232218685498
 -0.0041582284067750  0.8399236452890162 -0.0033409417893106
  0.1194401033445349  0.0898864190914674 -0.0146304351221309
  0.1193450456135569  0.2557025162998228  0.0072728227387888
  0.1205351384122355  0.4228784936155002  0.0119239790919966
  0.1204388474065603  0.5887445000261102  0.0199266316076936
  0.1209593090249207  0.7551913475795935  0.0078015595515582
  0.1201323692630196  0.9225992759599311 -0.0108268026474689
  0.2482909856963123  0.0051246702010732 -0.0359145379394772
  0.2432826718059102  0.1691083317945427  0.0341016997900488
  0.2462205072752324  0.3379504879162238 -0.0284941877945226
  0.2455442465167048  0.5030749686431134  0.0054456112122467
  0.2493425305985422  0.6718359328579410  0.0454651005561003
  0.2465086982342504  0.8359230937716743 -0.0251903702265608
  0.3709877590954688  0.0874517425269803  0.0185678048292678
  0.3702438519439246  0.2549574488015696  0.0187686979425823
  0.3665696272913549  0.4206035873311396  0.0582381578432754
  0.3722760162060911  0.5852310998570552 -0.0211971063802901
  0.3723826296189693  0.7549817294772648 -0.0048933966630977
  0.3711558356883746  0.9203855479199943  0.0163013447403433
  0.4959359591375070  0.0061734618180483  0.0137282142870994
  0.4959324428825850  0.1736288557348317  0.0204010400651725
  0.4912156753967840  0.3486783921334626  0.0375601531872772
  0.5047372118661442  0.5424413013740670  0.0622886868241761
  0.4985165675293414  0.6677260104464361  0.0081878197002663
  0.4957925690508109  0.8378809364961687  0.0139261534428423
  0.6204450975289363  0.0914718312013130  0.0191414545209415
  0.6195616473799977  0.2612572099279572  0.0222683268015219
  0.6192533796296188  0.4292489641947394  0.0180824429960693
  0.6241175703239147  0.5927233807249958 -0.0230619166735554
  0.6215661915859239  0.7574429001919483 -0.0343784582721432
  0.6204081348810768  0.9251726836156644 -0.0015479424760902
  0.7437782699166022  0.0073781978522370  0.0192704506085648
  0.7443534794481970  0.1764360458743704  0.0521247954674316
  0.7435998144972469  0.3404933361151526 -0.0024070324914489
  0.7468229635267306  0.5083983166687259 -0.0274215411969118
  0.7470369887649592  0.6753636305697736 -0.0342790079825401
  0.7444859035050645  0.8412994733139472 -0.0104333166554247
  0.8698430120146096  0.0904212382174722  0.0377998567550646
  0.8694657995510192  0.2574359133419849  0.0009406065183292
  0.8703507160495734  0.4239636570698310 -0.0183532420237525
  0.8712720778077658  0.5898448250492686 -0.0209184507796901
  0.8714910099021553  0.7554142819584079 -0.0076951152429267
  0.8707992223685734  0.9247711299614316  0.0144451141542504
  0.0779180146375921  0.0058229342697916 -0.0161644181401817
  0.0782094719716888  0.1728455358679599  0.0013753524113502
  0.0780886611813749  0.3397231977797010  0.0032468442120527
  0.0780834094417241  0.5059009834032343  0.0195831646131026
  0.0790452963867787  0.6720511619223078  0.0064584747623059
  0.0789282769294723  0.8385034070539685 -0.0119082279140340
  0.2038020842499234  0.0908534860638413 -0.0208208681415043
  0.2023165227491004  0.2560143117327865  0.0207023488242791
  0.2032737302697995  0.4215582537840494  0.0067295948856554
  0.2045779629407492  0.5866985856713059  0.0289512783470023
  0.2037699748188426  0.7559933868089973  0.0293442792151329
  0.2037666086173202  0.9227078172342986  0.0019458699551934
  0.3296644733852270  0.0045274386144852  0.0106768586399288
  0.3287932808083247  0.1707219067037082  0.0257067634387663
  0.3259465065296066  0.3373513931576396  0.0340439697542756
  0.3308823720859240  0.5012452792991544 -0.0007074211789328
  0.3282635835342382  0.6698887775500495 -0.0172376477047592
  0.3304672800100612  0.8374674954976961  0.0056376336508871
  0.4543232355387017  0.0899278305622270  0.0148877798826981
  0.4540871368110634  0.2568710544962218  0.0316668432003351
  0.4558855979418829  0.5862875704422578 -0.0427368623725787
  0.4552919529402173  0.7538549681049823  0.0069172703842637
  0.4548022812409215  0.9220096742920525  0.0208001765418019
  0.5789283343882418  0.0075241757226521  0.0121247089829803
  0.5789091124816901  0.1754126471362303  0.0224237096358423
  0.5780238659182890  0.3460617759152514  0.0296594258613313
  0.5825252894810475  0.5147389299193509  0.0150391294174160
  0.5814561167561318  0.6746131628356319 -0.0275893379935722
  0.5781445051757599  0.8414151910448533 -0.0216786667054603
  0.7030433237317597  0.0914085771172290  0.0233465280300839
  0.7027505748170283  0.2603586254852576  0.0221621018068665
  0.7016399654098199  0.4248358516354448 -0.0225635061039287
  0.7064929422825074  0.5919616866547768 -0.0383524519215065
  0.7050412459355235  0.7580685277734549 -0.0248174262862163
  0.7033449167796042  0.9239110302581751  0.0011641263123246
  0.8278341583531560  0.0058184880545552  0.0239088790545303
  0.8272294408696403  0.1732323341724873  0.0010948130909503
  0.8278734778890898  0.3410082873765251 -0.0055146022579509
  0.8300876328281875  0.5071907417739606 -0.0289248661549278
  0.8302405020440552  0.6737191487519277 -0.0212524856576180
  0.8296256124122877  0.8406238115162991 -0.0084045600400371
  0.9537833447975931  0.0892973291107317  0.0132548788766710
  0.9525720849969260  0.2562190570117876  0.0025117553818114
  0.9535553398034522  0.4235701556780601 -0.0056603686620675
  0.9540133524302028  0.5901783084722074 -0.0016083647764686
  0.9546619946753399  0.7561642163057783 -0.0032162840914273
  0.9540443622282181  0.9224686548721640  0.0081481057352135
  0.0676644676712363  0.0539091894365469  0.7242195431656745
  0.1027687774295954  0.3512832090139322  0.2939460786282638
  0.5956739989885204  0.2580640902790858  0.7904391333296624
  0.6002517103123176  0.8467402718906886  0.2432926376534356
  0.7289764712750227  0.2631301743807414  0.7019423946986540
  0.0063934499987203  0.2207986275209189  0.7469696953783462
  0.5537595462735937  0.6979893840696192  0.3978826702427120
  0.4655967007868184  0.2555249667494204  0.6898161443403967
  0.9237624511609169  0.0813675440556827  0.7238628785530949
  0.7652268688501910  0.1698000266316907  0.2652337961367632
  0.4854927673784832  0.5527697772552251  0.7844800941759104
  0.1277243142820287  0.7653635234512504  0.4874568026596565
  0.8932802871555159  0.5609013445908645  0.6621718393153636
  0.2161511769014626  0.5899774004552208  0.2308524179280491
  0.4792718888762499  0.6243728982228490  0.2234468749035556
  0.8021937546293570  0.4105969261729108  0.6608430965509619
  0.6643811476222523  0.3543023566450175  0.2738522862856536
  0.6965761284332187  0.8735950369293970  0.7139228794354366
  0.9756066394482755  0.8051385582309784  0.4811425887565403
  0.1536408714445872  0.3806567863305484  0.5342888786299309
  0.3886905769670443  0.7863640597863241  0.7249498050625610
  0.1713596480647911  0.9418534461356703  0.6585161806180679
  0.6748147577705281  0.4168789083957771  0.7835762262359324
  0.0930340009170893  0.6648429451360983  0.2924885695314967
  0.8374984242454178  0.8542121218785245  0.7966160680884170
  0.4812307023486787  0.5483742536009620  0.4594597645139517
  0.7394765224163684  0.5648334419286885  0.7029546634280431
  0.3463762628673563  0.1864989151465009  0.2377226604717395
  0.2960505269168517  0.2935109302968635  0.5819346092537818
  0.4445528465066569  0.0623168915324538  0.5416672192125895
  0.5496563110025185  0.4094698531503088  0.6543493726628582
  0.4780980147779661  0.2769675973631283  0.2254089614846340
 -0.0514550473686052  0.9489023336834210  0.3199150043464974
  0.7333481584567501  0.8259916601258209  0.3287822705570370
  0.3336211696118667  0.4767434856248594  0.7904084666343032
  0.4031312375397594  0.7204783592404681  0.4556357089116631
  0.8717552719703923  0.0388732063066396  0.4921428950538360
  0.4581105666293043  0.2323628385696659  0.4578107033574650
  0.3451923790156269  0.2983212559185556  0.8134585661365273
  0.5046925307333302  0.6921276418034583  0.6380304976339877
  0.8165126659976096  0.3476141278550856  0.2389518918939695
  0.4820662041404885  0.1049567145965625  0.2826824840239850
  0.4444783241907136 -0.0482268216677552  0.7642257230931161
 -0.0561478801549495  0.7307537665876044  0.7191933448909312
  0.7933128780287185  0.7209033084251194  0.6818582081586366
  0.8938303784806042  0.2252109236956814  0.3867233883887339
 -0.1961753250382641  0.1495740813414355  0.8207952275579864
  0.5209247665719249 -0.0439623717677442  0.3739640835831738
  0.6137967597629200  0.8259391373909105  0.5064287208249375
  0.1812328905938994  0.5094911806493923  0.7386744484651001
  0.7945203637350646  0.0007571466735607  0.7007465908470929
  0.6561039425368745  0.6796821273628730  0.2200067020951207
  0.4578994176788961  0.8106941421888060  0.2619600081633907
  0.2958992160367794  0.6544195394289024  0.7941911524406913
  0.5184490982862877  0.1034241383421550  0.7579307244196984
  0.3190446406422007  0.8535515685379631  0.3135751816015303
  0.7473126771935609  0.1370437426449631  0.5130015686281673
  0.3536533081617302  0.5286384314800621  0.3328362957664925
  0.7062526390874052  0.9664554503419532  0.4949817105700595
  0.5478559867548660  0.8263379523049749  0.7745606046883615
  0.6485416176237374  0.0260888740962783  0.2755218412676941
  0.2116529455085132  0.0971500836200933  0.7818970002360144
  0.9271214302016710  0.1027676365362971  0.2351233529975863
  0.0085868328354897  0.6381487236128905  0.5115140333053909
  0.0620895158661924  0.8378576153302280  0.2674278805703824
  0.6718605598260123  0.4281975545678611  0.5087722195666092
  0.2325548643014602  0.2973238878090278  0.1912254395892692
  0.6030294139196234  0.5636087940433575  0.6071705462811805
  0.7055302240956955  0.6735618644039828  0.4659221778551664
  0.3556451771598535  0.1317170772896214  0.7169824544082811
 -0.1366202898781395  0.6844782190616742  0.4760991695256643
  0.0379588855797324  0.5832102230545479  0.7525428448686843
  0.3775714762121833  0.5951845077379965  0.6181193278790400
  0.0486296845618319 -0.0479259952589133  0.5081491419128586
  0.3174668078516437  0.1467865251945080  0.4687833685817587
  0.2297906786080385  0.8082049411651802  0.7761740448340421
  0.7365483874080532  0.5055006427190673  0.2304020274873917
  0.0581405352098598  0.1876913128544832  0.2917800654769074
  0.1438533490908291  0.2182040685590441  0.6494756272082928
  0.6670241623616391  0.0909943265048056  0.7288380393454418
  0.0313808268822176  0.5048011042035927  0.3154996820165290
  0.8026416829841261  0.6629513381230194  0.2478181253506175
  0.9357126899018845  0.3876078126220781  0.7348468473045060
  0.2160725267896808  0.3457636455993685  0.7692622198000990
  0.7643724901152091  0.3028390220831851  0.4600621201457331
  0.1807411448529462 -0.0865744198290450  0.4111200042433478
  0.3527268805080134  0.3467248243326059  0.3452146942937928
  0.6479699785333534  0.7076815103836288  0.7070028627689169
  0.5293671318802187  0.3848067968030136  0.3979823268582182
  0.6103881553474807  0.1969966458872744  0.2944121030705808
  0.5686410208901717  0.9613771228055349  0.6355729703223629
 -0.0372768583384637  0.3483521155205269  0.2549057731326691
  0.8741585375368941  0.2414144340402720  0.6274091202159264
  0.8999800493489161  0.4042793931043877  0.4687513638534647
  0.0194841665628076  0.2946769535230443  0.5058606948824269
  0.1934923233503662  0.2398510286440309  0.4123833090031241
  0.2786373354565138  0.8159834189616602  0.5485948810588180
  0.3026345837577497 -0.0366212440325261  0.7715129799304814
  0.5911996569450022  0.0967177579817356  0.4962859849396457
  0.2626783156454592  0.6565101536901736  0.4615430316815011
  0.8304660759480972  0.8607802599605047  0.5247601565424321
  0.1614867841228081  0.6704985879120879  0.6846147145804670
  0.8740382501572763  0.8139705309586460  0.2778098825700928
  0.7934965060042938  0.5267247802361408  0.4626641602492367
  0.0778271163437345  0.8115944741128550  0.7206264047164151
  0.6085785170055129  0.5325843367528894  0.3343911945901773
  0.4107796941607164  0.4061300240839649  0.5678969000845375
  0.3381476699153979  0.6882507078807565  0.2360588052094892
  0.9555462947345806  0.9138446792366819  0.6919303949686544
  0.3484795324537311  0.0168364234042761  0.2764675254694303
  0.1441596070418071  0.5584656893319637  0.4839643415258534
  0.2115313622740135 -0.0580878647503181  0.1845059840357270
  0.7997128807797554  0.9882442340325356  0.2804736800843480
  0.0811504958178745  0.0181293002109982  0.2716693392233259
  0.2098256560053052  0.1099837127916135  0.2497776669175194
  0.8848817856832336  0.5082717278769053  0.2622605880410276
  0.0233811461630676  0.4706295750976162  0.5651413163961422
  0.0766851099258526  0.3746265314152927  0.7545399407159638
  0.2239549577024987  0.4385748302472778  0.3250725453358939
  0.9518709360927212  0.6673083198795201  0.2699308178991991
  0.3004239130273570 -0.0120245864259201  0.5183911968914899
  0.1619463552683961  0.0807350353017064  0.4929302105864073
  0.2024486193623861  0.7661192741043086  0.2249874975898721
  0.6114171170195216  0.2654512983821555  0.5361851770674370
  0.0051361546135655  0.1221979666289706  0.5086867435710709
  0.4268967049475694  0.8854515389472383  0.5283694951404223
  0.2769139485289028  0.4797494693077181  0.5453076063049603
  0.4566293448890642  0.4454792778462767  0.1912761524450866
  0.4667528104106121  0.3901050845016336 -0.1541365217224382
 
  0.00000000E+00  0.00000000E+00  0.00000000E+00
  0.00000000E+00  0.00000000E+00  0.00000000E+00
  0.00000000E+00  0.00000000E+00  0.00000000E+00
  0.00000000E+00  0.00000000E+00  0.00000000E+00
  0.00000000E+00  0.00000000E+00  0.00000000E+00
  0.00000000E+00  0.00000000E+00  0.00000000E+00
  0.00000000E+00  0.00000000E+00  0.00000000E+00
  0.00000000E+00  0.00000000E+00  0.00000000E+00
  0.00000000E+00  0.00000000E+00  0.00000000E+00
  0.00000000E+00  0.00000000E+00  0.00000000E+00
  0.00000000E+00  0.00000000E+00  0.00000000E+00
  0.00000000E+00  0.00000000E+00  0.00000000E+00
  0.00000000E+00  0.00000000E+00  0.00000000E+00
  0.00000000E+00  0.00000000E+00  0.00000000E+00
  0.00000000E+00  0.00000000E+00  0.00000000E+00
  0.00000000E+00  0.00000000E+00  0.00000000E+00
  0.00000000E+00  0.00000000E+00  0.00000000E+00
  0.00000000E+00  0.00000000E+00  0.00000000E+00
  0.00000000E+00  0.00000000E+00  0.00000000E+00
  0.00000000E+00  0.00000000E+00  0.00000000E+00
  0.00000000E+00  0.00000000E+00  0.00000000E+00
  0.00000000E+00  0.00000000E+00  0.00000000E+00
  0.00000000E+00  0.00000000E+00  0.00000000E+00
  0.00000000E+00  0.00000000E+00  0.00000000E+00
  0.00000000E+00  0.00000000E+00  0.00000000E+00
  0.00000000E+00  0.00000000E+00  0.00000000E+00
  0.00000000E+00  0.00000000E+00  0.00000000E+00
  0.00000000E+00  0.00000000E+00  0.00000000E+00
  0.00000000E+00  0.00000000E+00  0.00000000E+00
  0.00000000E+00  0.00000000E+00  0.00000000E+00
  0.00000000E+00  0.00000000E+00  0.00000000E+00
  0.00000000E+00  0.00000000E+00  0.00000000E+00
  0.00000000E+00  0.00000000E+00  0.00000000E+00
  0.00000000E+00  0.00000000E+00  0.00000000E+00
  0.00000000E+00  0.00000000E+00  0.00000000E+00
  0.00000000E+00  0.00000000E+00  0.00000000E+00
  0.00000000E+00  0.00000000E+00  0.00000000E+00
  0.00000000E+00  0.00000000E+00  0.00000000E+00
  0.00000000E+00  0.00000000E+00  0.00000000E+00
  0.00000000E+00  0.00000000E+00  0.00000000E+00
  0.00000000E+00  0.00000000E+00  0.00000000E+00
  0.00000000E+00  0.00000000E+00  0.00000000E+00
  0.00000000E+00  0.00000000E+00  0.00000000E+00
  0.00000000E+00  0.00000000E+00  0.00000000E+00
  0.00000000E+00  0.00000000E+00  0.00000000E+00
  0.00000000E+00  0.00000000E+00  0.00000000E+00
  0.00000000E+00  0.00000000E+00  0.00000000E+00
  0.00000000E+00  0.00000000E+00  0.00000000E+00
  0.00000000E+00  0.00000000E+00  0.00000000E+00
  0.00000000E+00  0.00000000E+00  0.00000000E+00
  0.00000000E+00  0.00000000E+00  0.00000000E+00
  0.00000000E+00  0.00000000E+00  0.00000000E+00
  0.00000000E+00  0.00000000E+00  0.00000000E+00
  0.00000000E+00  0.00000000E+00  0.00000000E+00
  0.00000000E+00  0.00000000E+00  0.00000000E+00
  0.00000000E+00  0.00000000E+00  0.00000000E+00
  0.00000000E+00  0.00000000E+00  0.00000000E+00
  0.00000000E+00  0.00000000E+00  0.00000000E+00
  0.00000000E+00  0.00000000E+00  0.00000000E+00
  0.00000000E+00  0.00000000E+00  0.00000000E+00
  0.00000000E+00  0.00000000E+00  0.00000000E+00
  0.00000000E+00  0.00000000E+00  0.00000000E+00
  0.00000000E+00  0.00000000E+00  0.00000000E+00
  0.00000000E+00  0.00000000E+00  0.00000000E+00
  0.00000000E+00  0.00000000E+00  0.00000000E+00
  0.00000000E+00  0.00000000E+00  0.00000000E+00
  0.00000000E+00  0.00000000E+00  0.00000000E+00
  0.00000000E+00  0.00000000E+00  0.00000000E+00
  0.00000000E+00  0.00000000E+00  0.00000000E+00
  0.00000000E+00  0.00000000E+00  0.00000000E+00
  0.00000000E+00  0.00000000E+00  0.00000000E+00
  0.00000000E+00  0.00000000E+00  0.00000000E+00
  0.00000000E+00  0.00000000E+00  0.00000000E+00
  0.00000000E+00  0.00000000E+00  0.00000000E+00
  0.00000000E+00  0.00000000E+00  0.00000000E+00
  0.00000000E+00  0.00000000E+00  0.00000000E+00
  0.00000000E+00  0.00000000E+00  0.00000000E+00
  0.00000000E+00  0.00000000E+00  0.00000000E+00
  0.00000000E+00  0.00000000E+00  0.00000000E+00
  0.00000000E+00  0.00000000E+00  0.00000000E+00
  0.00000000E+00  0.00000000E+00  0.00000000E+00
  0.00000000E+00  0.00000000E+00  0.00000000E+00
  0.00000000E+00  0.00000000E+00  0.00000000E+00
  0.00000000E+00  0.00000000E+00  0.00000000E+00
  0.00000000E+00  0.00000000E+00  0.00000000E+00
  0.00000000E+00  0.00000000E+00  0.00000000E+00
  0.00000000E+00  0.00000000E+00  0.00000000E+00
  0.00000000E+00  0.00000000E+00  0.00000000E+00
  0.00000000E+00  0.00000000E+00  0.00000000E+00
  0.00000000E+00  0.00000000E+00  0.00000000E+00
  0.00000000E+00  0.00000000E+00  0.00000000E+00
  0.00000000E+00  0.00000000E+00  0.00000000E+00
  0.00000000E+00  0.00000000E+00  0.00000000E+00
  0.00000000E+00  0.00000000E+00  0.00000000E+00
  0.00000000E+00  0.00000000E+00  0.00000000E+00
  0.00000000E+00  0.00000000E+00  0.00000000E+00
  0.00000000E+00  0.00000000E+00  0.00000000E+00
  0.00000000E+00  0.00000000E+00  0.00000000E+00
  0.00000000E+00  0.00000000E+00  0.00000000E+00
  0.00000000E+00  0.00000000E+00  0.00000000E+00
  0.00000000E+00  0.00000000E+00  0.00000000E+00
  0.00000000E+00  0.00000000E+00  0.00000000E+00
  0.00000000E+00  0.00000000E+00  0.00000000E+00
  0.00000000E+00  0.00000000E+00  0.00000000E+00
  0.00000000E+00  0.00000000E+00  0.00000000E+00
  0.00000000E+00  0.00000000E+00  0.00000000E+00
  0.00000000E+00  0.00000000E+00  0.00000000E+00
  0.00000000E+00  0.00000000E+00  0.00000000E+00
  0.00000000E+00  0.00000000E+00  0.00000000E+00
  0.00000000E+00  0.00000000E+00  0.00000000E+00
  0.00000000E+00  0.00000000E+00  0.00000000E+00
  0.00000000E+00  0.00000000E+00  0.00000000E+00
  0.00000000E+00  0.00000000E+00  0.00000000E+00
  0.00000000E+00  0.00000000E+00  0.00000000E+00
  0.00000000E+00  0.00000000E+00  0.00000000E+00
  0.00000000E+00  0.00000000E+00  0.00000000E+00
  0.00000000E+00  0.00000000E+00  0.00000000E+00
  0.00000000E+00  0.00000000E+00  0.00000000E+00
  0.00000000E+00  0.00000000E+00  0.00000000E+00
  0.00000000E+00  0.00000000E+00  0.00000000E+00
  0.00000000E+00  0.00000000E+00  0.00000000E+00
  0.00000000E+00  0.00000000E+00  0.00000000E+00
  0.00000000E+00  0.00000000E+00  0.00000000E+00
  0.00000000E+00  0.00000000E+00  0.00000000E+00
  0.00000000E+00  0.00000000E+00  0.00000000E+00
  0.00000000E+00  0.00000000E+00  0.00000000E+00
  0.00000000E+00  0.00000000E+00  0.00000000E+00
  0.00000000E+00  0.00000000E+00  0.00000000E+00
  0.00000000E+00  0.00000000E+00  0.00000000E+00
  0.00000000E+00  0.00000000E+00  0.00000000E+00
  0.00000000E+00  0.00000000E+00  0.00000000E+00
  0.00000000E+00  0.00000000E+00  0.00000000E+00
  0.00000000E+00  0.00000000E+00  0.00000000E+00
  0.00000000E+00  0.00000000E+00  0.00000000E+00
  0.00000000E+00  0.00000000E+00  0.00000000E+00
  0.00000000E+00  0.00000000E+00  0.00000000E+00
  0.00000000E+00  0.00000000E+00  0.00000000E+00
  0.00000000E+00  0.00000000E+00  0.00000000E+00
  0.00000000E+00  0.00000000E+00  0.00000000E+00
  0.00000000E+00  0.00000000E+00  0.00000000E+00
  0.00000000E+00  0.00000000E+00  0.00000000E+00
  0.00000000E+00  0.00000000E+00  0.00000000E+00
  0.00000000E+00  0.00000000E+00  0.00000000E+00
  0.00000000E+00  0.00000000E+00  0.00000000E+00
  0.00000000E+00  0.00000000E+00  0.00000000E+00
  0.00000000E+00  0.00000000E+00  0.00000000E+00
  0.00000000E+00  0.00000000E+00  0.00000000E+00
  0.00000000E+00  0.00000000E+00  0.00000000E+00
  0.00000000E+00  0.00000000E+00  0.00000000E+00
  0.00000000E+00  0.00000000E+00  0.00000000E+00
  0.00000000E+00  0.00000000E+00  0.00000000E+00
  0.00000000E+00  0.00000000E+00  0.00000000E+00
  0.00000000E+00  0.00000000E+00  0.00000000E+00
  0.00000000E+00  0.00000000E+00  0.00000000E+00
  0.00000000E+00  0.00000000E+00  0.00000000E+00
  0.00000000E+00  0.00000000E+00  0.00000000E+00
  0.00000000E+00  0.00000000E+00  0.00000000E+00
  0.00000000E+00  0.00000000E+00  0.00000000E+00
  0.00000000E+00  0.00000000E+00  0.00000000E+00
  0.00000000E+00  0.00000000E+00  0.00000000E+00
  0.00000000E+00  0.00000000E+00  0.00000000E+00
  0.00000000E+00  0.00000000E+00  0.00000000E+00
  0.00000000E+00  0.00000000E+00  0.00000000E+00
  0.00000000E+00  0.00000000E+00  0.00000000E+00
  0.00000000E+00  0.00000000E+00  0.00000000E+00
  0.00000000E+00  0.00000000E+00  0.00000000E+00
  0.00000000E+00  0.00000000E+00  0.00000000E+00
  0.00000000E+00  0.00000000E+00  0.00000000E+00
  0.00000000E+00  0.00000000E+00  0.00000000E+00
  0.00000000E+00  0.00000000E+00  0.00000000E+00
  0.00000000E+00  0.00000000E+00  0.00000000E+00
  0.00000000E+00  0.00000000E+00  0.00000000E+00
  0.00000000E+00  0.00000000E+00  0.00000000E+00
  0.00000000E+00  0.00000000E+00  0.00000000E+00
  0.00000000E+00  0.00000000E+00  0.00000000E+00
  0.00000000E+00  0.00000000E+00  0.00000000E+00
  0.00000000E+00  0.00000000E+00  0.00000000E+00
  0.00000000E+00  0.00000000E+00  0.00000000E+00
  0.00000000E+00  0.00000000E+00  0.00000000E+00
  0.00000000E+00  0.00000000E+00  0.00000000E+00
  0.00000000E+00  0.00000000E+00  0.00000000E+00
  0.00000000E+00  0.00000000E+00  0.00000000E+00
  0.00000000E+00  0.00000000E+00  0.00000000E+00
  0.00000000E+00  0.00000000E+00  0.00000000E+00
  0.00000000E+00  0.00000000E+00  0.00000000E+00
  0.00000000E+00  0.00000000E+00  0.00000000E+00
  0.00000000E+00  0.00000000E+00  0.00000000E+00
  0.00000000E+00  0.00000000E+00  0.00000000E+00
  0.00000000E+00  0.00000000E+00  0.00000000E+00
  0.00000000E+00  0.00000000E+00  0.00000000E+00
  0.00000000E+00  0.00000000E+00  0.00000000E+00
  0.00000000E+00  0.00000000E+00  0.00000000E+00
  0.00000000E+00  0.00000000E+00  0.00000000E+00
  0.00000000E+00  0.00000000E+00  0.00000000E+00
  0.00000000E+00  0.00000000E+00  0.00000000E+00
  0.00000000E+00  0.00000000E+00  0.00000000E+00
  0.00000000E+00  0.00000000E+00  0.00000000E+00
  0.00000000E+00  0.00000000E+00  0.00000000E+00
  0.00000000E+00  0.00000000E+00  0.00000000E+00
  0.00000000E+00  0.00000000E+00  0.00000000E+00
  0.00000000E+00  0.00000000E+00  0.00000000E+00
  0.00000000E+00  0.00000000E+00  0.00000000E+00
  0.00000000E+00  0.00000000E+00  0.00000000E+00
  0.00000000E+00  0.00000000E+00  0.00000000E+00
  0.00000000E+00  0.00000000E+00  0.00000000E+00
  0.00000000E+00  0.00000000E+00  0.00000000E+00
  0.00000000E+00  0.00000000E+00  0.00000000E+00
  0.00000000E+00  0.00000000E+00  0.00000000E+00
  0.00000000E+00  0.00000000E+00  0.00000000E+00
  0.00000000E+00  0.00000000E+00  0.00000000E+00
  0.00000000E+00  0.00000000E+00  0.00000000E+00
  0.00000000E+00  0.00000000E+00  0.00000000E+00
  0.00000000E+00  0.00000000E+00  0.00000000E+00
  0.00000000E+00  0.00000000E+00  0.00000000E+00
  0.00000000E+00  0.00000000E+00  0.00000000E+00
  0.00000000E+00  0.00000000E+00  0.00000000E+00
  0.00000000E+00  0.00000000E+00  0.00000000E+00
  0.00000000E+00  0.00000000E+00  0.00000000E+00
  0.00000000E+00  0.00000000E+00  0.00000000E+00
  0.00000000E+00  0.00000000E+00  0.00000000E+00
  0.00000000E+00  0.00000000E+00  0.00000000E+00
  0.00000000E+00  0.00000000E+00  0.00000000E+00
  0.00000000E+00  0.00000000E+00  0.00000000E+00
  0.00000000E+00  0.00000000E+00  0.00000000E+00
