BoronNitride                            
   1.0000000000000000     
    17.3520000000000003    0.0000000000000000    0.0000000000000000
     0.0000000000000000   15.0272728064999992    0.0000000000000000
     0.0000000000000000    0.0000000000000000   10.6393173196999999
   B    N 
    48    48
Direct
  0.9958858242440723  0.0033093485333448  0.0200047775599014
  0.9959111623343855  0.1699625163997263  0.0200116157894400
  0.9958904601762881  0.3366290836200891  0.0200437059642450
  0.9958839850762127  0.5033137914533746  0.0200509565131805
  0.9959016399386960  0.6699803046006970  0.0199929679817415
  0.9958901389416509  0.8366380064246541  0.0199886826887400
  0.1208914782162048  0.0866508244445458  0.0199439063750338
  0.1208875456296508  0.2533274664845496  0.0199885939360784
  0.1208964955654236  0.4199953984715951  0.0199764491066125
  0.1208853158177071  0.5866597799165996  0.0199355534445141
  0.1208873694662455  0.7533331113701446  0.0199556489425458
  0.1208985535085346  0.9199946495908793  0.0199662180105879
  0.2458893208687838  0.0033488566840080  0.0199406282846407
  0.2458978996960290  0.1700088488712348  0.0199356337636727
  0.2458819425429178  0.3366771063489806  0.0199205283402066
  0.2458851287672328  0.5033532396142087  0.0199408953280199
  0.2458977591776353  0.6700096804934556  0.0199157680604659
  0.2458834935855964  0.8366764288493755  0.0198995312294071
  0.3708878701359025  0.0866875535447790  0.0199282226854897
  0.3708818545630136  0.2533555168446336  0.0199254078842763
  0.3708971712820286  0.4200193923862975  0.0199496045535486
  0.3708877807782281  0.5866858695130617  0.0199604812389257
  0.3708823878333535  0.7533549153797005  0.0199274964788318
  0.3708993925832332  0.9200194534976903  0.0199432586342712
  0.4958851035501510  0.0033413309203044  0.0199417190511092
  0.4959055762233853  0.1700014493260143  0.0200063764398761
  0.4958840790848987  0.3366660324871655  0.0199587095716529
  0.4958845804862690  0.5033357083823795  0.0199920707935938
  0.4959043385600728  0.6699981563132014  0.0200410155743857
  0.4958841727055679  0.8366666745839101  0.0199563685407415
  0.6208923124222940  0.0866405222913603  0.0200354042225650
  0.6208887086947367  0.2533118764391765  0.0200854671763656
  0.6209055644886269  0.4199703269450114  0.0200584328211145
  0.6208884903082487  0.5866331189009021  0.0200550799373682
  0.6208852976268482  0.7533108136932525  0.0200842020735284
  0.6209024788351064  0.9199783072507044  0.0200459414812104
  0.7458897510465361  0.0032973204619908  0.0200703391578164
  0.7459099115213196  0.1699546033768358  0.0200788402548258
  0.7458905545858289  0.3366190698484028  0.0200708184969065
  0.7458884435984513  0.5032954722860216  0.0200813828332051
  0.7459048823708515  0.6699536680036127  0.0200450236819646
  0.7458855837333217  0.8366208299384066  0.0200618833343925
  0.8708909569549713  0.0866204460333651  0.0200448555254317
  0.8708916264881087  0.2532956580872472  0.0200732964211461
  0.8709090315793556  0.4199530049592186  0.0200779680284529
  0.8708875023140411  0.5866206093184128  0.0200298208890609
  0.8708836133270145  0.7533005730471315  0.0200136291424735
  0.8709060989819053  0.9199542005091164  0.0200241079093314
  0.0792059868140952  0.0033021348915204  0.0200545095641980
  0.0792591249382404  0.1699748117876585  0.0198749930112027
  0.0792056516200315  0.3366568219953638  0.0200412138022118
  0.0792044183982423  0.5033060774726802  0.0200630196508823
  0.0792514769506654  0.6699898852251949  0.0198528826699233
  0.0792055083620717  0.8366602973597973  0.0200257689866863
  0.2042055767305052  0.0866757115111722  0.0199464802324968
  0.2042062203179448  0.2533193288901455  0.0200432195352934
  0.2042416633253798  0.4200110929289955  0.0198081509932838
  0.2042014087248273  0.5866795056652944  0.0199409293323048
  0.2042071704394588  0.7533199177612020  0.0199939139321122
  0.2042434835370165  0.9200096350497362  0.0198044934268215
  0.3292135377742080  0.0033398283287368  0.0200715656320869
  0.3292414853818539  0.1700170696635367  0.0198011211127470
  0.3291997807742049  0.3366881865258995  0.0199402086871614
  0.3292109222873119  0.5033402415947307  0.0200775992033544
  0.3292417711975769  0.6700163891964606  0.0198031641416135
  0.3292012564832310  0.8366881574744596  0.0199365933127899
  0.4542045797561026  0.0866786937468607  0.0199524059242479
  0.4542060730762099  0.2533155981972852  0.0200491991105725
  0.4542408878118346  0.4200036214309395  0.0198162058627920
  0.4542050741186532  0.5866725284072662  0.0200387545584160
  0.4542064530723444  0.7533146356701034  0.0200552290657860
  0.4542428377621116  0.9200060198078320  0.0198056914440111
  0.5792080742404051  0.0032966413811912  0.0200668858787215
  0.5792546349549028  0.1699699943583607  0.0199986552189979
  0.5792040165247655  0.3366494673830682  0.0200540621338901
  0.5792061432710502  0.5032837868429879  0.0201036397267309
  0.5792530761742373  0.6699665240658993  0.0200074856551769
  0.5792034508930303  0.8366522614492397  0.0200520431982762
  0.7042090906823759  0.0866345339676863  0.0200663450392751
  0.7042096621624794  0.2532639169069452  0.0201561535724828
  0.7042545716126730  0.4199513170281748  0.0200124399050915
  0.7042059965965352  0.5866319553352086  0.0200653694167536
  0.7042063160792155  0.7532641341835301  0.0201493503407363
  0.7042524883080538  0.9199545408658055  0.0200090306798500
  0.8292115046447600  0.0032637569840784  0.0201085882804926
  0.8292571352693235  0.1699500229604251  0.0200081834748924
  0.8292084953180031  0.3366297295788067  0.0200711069386202
  0.8292092558964382  0.5032607633660664  0.0201482293149488
  0.8292509806411197  0.6699494673185739  0.0199148880122309
  0.8292028840972288  0.8366326724015574  0.0200512446075982
  0.9542070562551017  0.0866392756579304  0.0200448673411164
  0.9542132821171868  0.2532687736007878  0.0201073462876074
  0.9542563515321286  0.4199583554478749  0.0200061311006222
  0.9542043992643233  0.5866463100334842  0.0200504396680577
  0.9542060380943999  0.7532899594103680  0.0200656518313481
  0.9542517596932575  0.9199592164719268  0.0199052630309266

  0.00000000E+00  0.00000000E+00  0.00000000E+00
  0.00000000E+00  0.00000000E+00  0.00000000E+00
  0.00000000E+00  0.00000000E+00  0.00000000E+00
  0.00000000E+00  0.00000000E+00  0.00000000E+00
  0.00000000E+00  0.00000000E+00  0.00000000E+00
  0.00000000E+00  0.00000000E+00  0.00000000E+00
  0.00000000E+00  0.00000000E+00  0.00000000E+00
  0.00000000E+00  0.00000000E+00  0.00000000E+00
  0.00000000E+00  0.00000000E+00  0.00000000E+00
  0.00000000E+00  0.00000000E+00  0.00000000E+00
  0.00000000E+00  0.00000000E+00  0.00000000E+00
  0.00000000E+00  0.00000000E+00  0.00000000E+00
  0.00000000E+00  0.00000000E+00  0.00000000E+00
  0.00000000E+00  0.00000000E+00  0.00000000E+00
  0.00000000E+00  0.00000000E+00  0.00000000E+00
  0.00000000E+00  0.00000000E+00  0.00000000E+00
  0.00000000E+00  0.00000000E+00  0.00000000E+00
  0.00000000E+00  0.00000000E+00  0.00000000E+00
  0.00000000E+00  0.00000000E+00  0.00000000E+00
  0.00000000E+00  0.00000000E+00  0.00000000E+00
  0.00000000E+00  0.00000000E+00  0.00000000E+00
  0.00000000E+00  0.00000000E+00  0.00000000E+00
  0.00000000E+00  0.00000000E+00  0.00000000E+00
  0.00000000E+00  0.00000000E+00  0.00000000E+00
  0.00000000E+00  0.00000000E+00  0.00000000E+00
  0.00000000E+00  0.00000000E+00  0.00000000E+00
  0.00000000E+00  0.00000000E+00  0.00000000E+00
  0.00000000E+00  0.00000000E+00  0.00000000E+00
  0.00000000E+00  0.00000000E+00  0.00000000E+00
  0.00000000E+00  0.00000000E+00  0.00000000E+00
  0.00000000E+00  0.00000000E+00  0.00000000E+00
  0.00000000E+00  0.00000000E+00  0.00000000E+00
  0.00000000E+00  0.00000000E+00  0.00000000E+00
  0.00000000E+00  0.00000000E+00  0.00000000E+00
  0.00000000E+00  0.00000000E+00  0.00000000E+00
  0.00000000E+00  0.00000000E+00  0.00000000E+00
  0.00000000E+00  0.00000000E+00  0.00000000E+00
  0.00000000E+00  0.00000000E+00  0.00000000E+00
  0.00000000E+00  0.00000000E+00  0.00000000E+00
  0.00000000E+00  0.00000000E+00  0.00000000E+00
  0.00000000E+00  0.00000000E+00  0.00000000E+00
  0.00000000E+00  0.00000000E+00  0.00000000E+00
  0.00000000E+00  0.00000000E+00  0.00000000E+00
  0.00000000E+00  0.00000000E+00  0.00000000E+00
  0.00000000E+00  0.00000000E+00  0.00000000E+00
  0.00000000E+00  0.00000000E+00  0.00000000E+00
  0.00000000E+00  0.00000000E+00  0.00000000E+00
  0.00000000E+00  0.00000000E+00  0.00000000E+00
  0.00000000E+00  0.00000000E+00  0.00000000E+00
  0.00000000E+00  0.00000000E+00  0.00000000E+00
  0.00000000E+00  0.00000000E+00  0.00000000E+00
  0.00000000E+00  0.00000000E+00  0.00000000E+00
  0.00000000E+00  0.00000000E+00  0.00000000E+00
  0.00000000E+00  0.00000000E+00  0.00000000E+00
  0.00000000E+00  0.00000000E+00  0.00000000E+00
  0.00000000E+00  0.00000000E+00  0.00000000E+00
  0.00000000E+00  0.00000000E+00  0.00000000E+00
  0.00000000E+00  0.00000000E+00  0.00000000E+00
  0.00000000E+00  0.00000000E+00  0.00000000E+00
  0.00000000E+00  0.00000000E+00  0.00000000E+00
  0.00000000E+00  0.00000000E+00  0.00000000E+00
  0.00000000E+00  0.00000000E+00  0.00000000E+00
  0.00000000E+00  0.00000000E+00  0.00000000E+00
  0.00000000E+00  0.00000000E+00  0.00000000E+00
  0.00000000E+00  0.00000000E+00  0.00000000E+00
  0.00000000E+00  0.00000000E+00  0.00000000E+00
  0.00000000E+00  0.00000000E+00  0.00000000E+00
  0.00000000E+00  0.00000000E+00  0.00000000E+00
  0.00000000E+00  0.00000000E+00  0.00000000E+00
  0.00000000E+00  0.00000000E+00  0.00000000E+00
  0.00000000E+00  0.00000000E+00  0.00000000E+00
  0.00000000E+00  0.00000000E+00  0.00000000E+00
  0.00000000E+00  0.00000000E+00  0.00000000E+00
  0.00000000E+00  0.00000000E+00  0.00000000E+00
  0.00000000E+00  0.00000000E+00  0.00000000E+00
  0.00000000E+00  0.00000000E+00  0.00000000E+00
  0.00000000E+00  0.00000000E+00  0.00000000E+00
  0.00000000E+00  0.00000000E+00  0.00000000E+00
  0.00000000E+00  0.00000000E+00  0.00000000E+00
  0.00000000E+00  0.00000000E+00  0.00000000E+00
  0.00000000E+00  0.00000000E+00  0.00000000E+00
  0.00000000E+00  0.00000000E+00  0.00000000E+00
  0.00000000E+00  0.00000000E+00  0.00000000E+00
  0.00000000E+00  0.00000000E+00  0.00000000E+00
  0.00000000E+00  0.00000000E+00  0.00000000E+00
  0.00000000E+00  0.00000000E+00  0.00000000E+00
  0.00000000E+00  0.00000000E+00  0.00000000E+00
  0.00000000E+00  0.00000000E+00  0.00000000E+00
  0.00000000E+00  0.00000000E+00  0.00000000E+00
  0.00000000E+00  0.00000000E+00  0.00000000E+00
  0.00000000E+00  0.00000000E+00  0.00000000E+00
  0.00000000E+00  0.00000000E+00  0.00000000E+00
  0.00000000E+00  0.00000000E+00  0.00000000E+00
  0.00000000E+00  0.00000000E+00  0.00000000E+00
  0.00000000E+00  0.00000000E+00  0.00000000E+00
  0.00000000E+00  0.00000000E+00  0.00000000E+00
