iota_aluminum                           
   1.00000000000000     
    17.3520000000000003    0.0000000000000000    0.0000000000000000
     0.0000000000000000   15.0272728064999992    0.0000000000000000
     0.0000000000000000    0.0000000000000000   10.6393173196999999
   Al
     1
Direct
  0.5000000000000000  0.4999999999986713  0.0000000000000000
 
  0.00000000E+00  0.00000000E+00  0.00000000E+00
