iota_aluminum
   1.00000000000000
   17.352     0.0      0.0
   0.0     15.0272728065      0.0
   0.0      0.0     10.6393173197
  Al
  1 
Cartesian 
8.676	7.51363640323	0 
