BoronNitride_undoped_flowing            
   1.00000000000000     
    17.3520000000000003    0.0000000000000000    0.0000000000000000
     0.0000000000000000   15.0272728064999992    0.0000000000000000
     0.0000000000000000    0.0000000000000000   10.6393173196999999
   B    N    Al
    48    48   128
Direct
  0.2475218733740239  0.1369133119421194  0.9973737859969526
  0.2464013842241563  0.3034905615905362  0.0034674504456942
  0.2459467102698384  0.4684796753178509  0.0097082971106936
  0.2464356556276468  0.6377255166793703  0.0025797529519387
  0.2460796188804475  0.8034756323128969  0.9957835238892432
  0.2466495364656413  0.9699470089218073  0.9932129745900080
  0.3730303887208977  0.2195314159283151  0.9906230261706412
  0.3711303062259899  0.3856521603615031  0.9973660300960212
  0.3705016856498484  0.5542559146910081  0.0077473647542014
  0.3706471479071707  0.7211447250168055  0.0212257408771537
  0.3710456598614709  0.8876929451025592  0.9993690699135326
  0.3714374134966945  0.0535565618591761  0.9859920823143838
  0.4949334463298210  0.1369301038246374  0.0080078147610094
  0.4961167391980928  0.3025475434128181  0.9872887387055370
  0.4953754759953939  0.4702876929294978  0.0158084822076237
  0.4958942851793016  0.6383253655452998  0.0117206592885134
  0.4944130740022163  0.8044984139047704  0.0040253409033460
  0.4957249095521462  0.9720357516318638  0.0181506392808794
  0.6200726871026933  0.2209531952093105  0.9957909811359344
  0.6195096415013376  0.3873847861323718  0.0065083743236833
  0.6204224995078207  0.5532567645637951  0.9949042441914986
  0.6201774714659515  0.7197514868435083  0.9982824617482158
  0.6197727784443146  0.8879620852985615  0.0076889706231986
  0.6189949156917696  0.0537544214256777  0.0069735655448959
  0.7438269318278304  0.1365382533005357  0.0169623045700902
  0.7427163978905810  0.3038123449312788  0.0101614889414745
  0.7441928361097782  0.4699098843369816  0.9970664040573384
  0.7444787557335600  0.6357312741974553  0.0028444248192894
  0.7445207475114145  0.8051570863803110  0.9736131373162602
  0.7450142153624959  0.9694565332333942  0.0015324237494874
  0.8701184874533250  0.2197207115645404  0.0190297178113197
  0.8692572956758843  0.3873254918053041  0.0058688877446981
  0.8692986597638546  0.5534149569465059  0.9886875213858334
  0.8695393872987353  0.7216858960660824  0.0007625345282412
  0.8713750628472782  0.8864299940876459  0.0034900379952315
  0.8713959939309261  0.0539098253070942  0.9922941506747609
  0.9970951097892550  0.1365529553835004  0.0092795436938867
  0.9952955579306824  0.3029146786215032  0.0081688260832478
  0.9968016533671873  0.4706610959612117  0.0015562961438804
  0.9954800806113643  0.6373875771885490  0.9799140402041638
  0.9946789623490803  0.8046271102264678  0.9904224515308385
  0.9960008470976821  0.9700364843932361  0.9965540360792176
  0.1208976761074256  0.2187215611361409  0.0028184449632121
  0.1219868772416468  0.3872044223790753  0.0113134243861826
  0.1201487229355878  0.5528215540979341  0.9938863634409671
  0.1209358814955236  0.7200260825737440  0.9896315359882930
  0.1200872383624837  0.8877392682123164  0.9968544407073885
  0.1202282871180646  0.0530277178606520  0.0072065329592106
  0.3304774179226444  0.1373069548981917  0.9925974175328115
  0.3289933581061537  0.3022373751040718  0.9981560512036237
  0.3287635008351471  0.4692734516725531  0.0055873422031959
  0.3289716563683931  0.6371397759706139  0.0070077487460401
  0.3287634391259398  0.8051360724682145  0.0080929414915736
  0.3290597590665872  0.9704981451658106  0.9994472256689479
  0.4550238092218812  0.2195245832413159  0.9982565521231695
  0.4538670948193056  0.3860627929380063  0.9870936044875277
  0.4537690505052672  0.5551707100265102  0.9943464937612845
  0.4537530734325948  0.7196266855049905  0.0152848808866034
  0.4534024663883323  0.8887848673993336  0.9995891378913814
  0.4549557448908635  0.0540227811293236  0.9710730861693235
  0.5791374279242651  0.1365029856386780  0.9920342603209239
  0.5793640141528128  0.3033355176887155  0.0002852636942269
  0.5787319867154891  0.4706991975432967  0.9901965788585521
  0.5790826111705959  0.6358987371716065  0.0019649806196535
  0.5797797504787643  0.8037744637698319  0.0103497298589505
  0.5788722777623775  0.9716410489528294  0.9966317410606552
  0.7021446154138639  0.2196297193571421  0.0059334115748551
  0.7025885207486644  0.3868912687326389  0.9968641543309898
  0.7030614435935731  0.5535488114655991  0.9900952238296785
  0.7046134197097127  0.7209090403219985  0.0108370197286406
  0.7034999477552527  0.8874765575543176  0.0044290438403050
  0.7016237925610525  0.0529304174641873  0.0070867483399036
  0.8282345548602869  0.1372776103850037  0.0199124249754518
  0.8274776360576837  0.3028230246231613  0.0096494940243196
  0.8277331375175716  0.4704500039408470  0.9974160433247659
  0.8277522920319373  0.6378272468866671  0.9911112722423631
  0.8280110495851793  0.8044772844084495  0.9935534308094836
  0.8285478220602898  0.9691983727899712  0.0079509317968365
  0.9538652305435477  0.2196596764359088  0.0179687637899181
  0.9542006678754081  0.3862354896277229  0.0109417653777020
  0.9527791623402365  0.5538069399549859  0.9885431614129205
  0.9519200955036830  0.7199622578857181  0.9895234985385347
  0.9527359094972069  0.8876292510256145  0.9852816026824537
  0.9558133950215300  0.0543281275600056  0.0142175106440831
  0.0793768586716718  0.1365779137133948  0.0125546077235779
  0.0793960623526028  0.3036930070146835  0.0222340068297002
  0.0802525163183941  0.4693191212528177  0.0036766333943521
  0.0789660321284693  0.6358514608506678  0.9893962527099672
  0.0786408537527270  0.8034939651391805  0.9991169119159912
  0.0789113523096374  0.9707888118529329  0.9936294485064585
  0.2046719833266968  0.2201885692262871  0.0058426561319992
  0.2049952624902421  0.3862977703799698  0.0041892258348933
  0.2045858924546861  0.5531035609732651  0.0071404734016492
  0.2049978998120764  0.7204991914943153  0.9966404434869435
  0.2047767448923828  0.8873016807897073  0.9950501682434520
  0.2047211438867840  0.0532923346018436  0.9945621060862064
  0.3175331357967863  0.3217096381244421  0.7273872543001655
  0.3650730863013549  0.6452684318351221  0.3079071175305784
  0.8220357621919556  0.5590083951689847  0.7220099849492184
  0.8779948957861609  0.1743318248779600  0.2220855239861360
  0.9783352991364648  0.5631908424573318  0.7251623903026008
  0.2559837151867046  0.5099906413485995  0.7543406721992713
  0.8120997883196561  0.0606542434209711  0.3711634837519445
  0.6791589715908849  0.4939931466963602  0.6983244530544404
  0.1836444233808133  0.3703683696496239  0.6998545821807294
  0.0305516809735283  0.4577615369183813  0.2766430687816298
  0.7135038390586786  0.9011245962183889  0.7732585325848632
  0.3729476216244531  0.0594382749677411  0.5042189210932323
  0.1558737270030597  0.8396170084298221  0.6998165858924896
  0.4694027599696625  0.8870321489611619  0.2448775539954594
  0.7425082648342679  0.9317644606986898  0.2286787586995034
  0.0563256773393060  0.7053693876377225  0.6729332356405672
  0.8854627867469964  0.6610812111408831  0.2762632093283349
  0.9448095882624719  0.2121694125587592  0.7921121146087110
  0.2246748080578615  0.0811197155398035  0.4638141664830627
  0.4239173320506511  0.6820013058952656  0.5298524754931994
  0.6575137812863342  0.0811660266476540  0.7350164321125114
  0.4381627824619644  0.2333943187957584  0.6496776826544099
  0.9026203235466175  0.7110200725363184  0.7185512040515282
  0.3394829453909965  0.9632793019286818  0.2939371122869242
  0.0573791359790784  0.1253602466969943  0.7055257058540215
  0.7621549771998339  0.8855597209263761  0.4594333628838318
  0.9927054889552820  0.8592975358816307  0.6875957681821894
  0.6101764586622744  0.4826387415736719  0.2140383969153077
  0.5786067886555233  0.6189777659933301  0.5553125325575405
  0.7117896720028629  0.3559676568133918  0.5577591201803795
  0.7470572214176447  0.7202190971164095  0.7246154279340336
  0.7421053430075675  0.5647561770063054  0.2487996393315279
  0.2054532515465787  0.2387971603503674  0.3122495998064738
  0.9906077468555150  0.1102486807096699  0.3542001801081747
  0.5948855021862902  0.7868918039753898  0.7343556405839990
  0.6704151415236018  0.0365874305023055  0.4076675754275839
  0.1255239696081289  0.3597796216781299  0.4684924832252568
  0.7425020147572684  0.5593037146150430  0.4968640160376165
  0.6266786921488573  0.6295409066125611  0.7842946226579386
  0.7782411441115291  0.0191781422492808  0.6074364025276017
  0.0745573624088747  0.6249921778800817  0.2249083529427246
  0.7445247303788156  0.3885765570240721  0.3050179394447987
  0.7093306612955429  0.2451202047528684  0.7670650804862094
  0.2153260479848056  0.0198390369661546  0.7047943704755841
  0.0797198960967965  0.9733628920290819  0.7832854005290548
  0.1576729081537454  0.5281679420296198  0.3874118018266428
  0.0710311012724691  0.4485097085893600  0.7963311551708522
  0.8207613475560921  0.2528109080746794  0.4183392112113757
  0.9053655485025309  0.1241525581848723  0.5559279534556485
  0.4392656829615890  0.7988513229548676  0.7337928881134440
  0.0578247222530757  0.2949856879518344  0.6870814297445154
  0.9070476815676125  0.9929856009599649  0.2196671220415992
  0.7192994690316120  0.1929973217905664  0.2647095015022898
  0.5588590096890524  0.9494330167017748  0.7853280355541594
  0.7849895055796605  0.3966414786477026  0.7750615083042551
  0.5746498259308807  0.1516991624426216  0.3119294923805803
  0.0056154066879726  0.4563328497078701  0.5255366710112780
  0.6150587018537499  0.8357213303484048  0.3131155971581272
  0.9687808117168805  0.2793071512529849  0.4917042383276203
  0.8128720040020193  0.1195014043007134  0.7877727508025288
  0.9168658035982531  0.3361160128989522  0.2675536219889068
  0.4465275468880763  0.3742818081926372  0.7914669544721820
  0.1831111829136411  0.3968263826199675  0.2369494004970804
  0.2315248486904146  0.9086693672960503  0.5061841553597042
  0.3198678757575957  0.1368892987347977  0.2706336277985503
  0.9437872647032249  0.7717988217387642  0.4885883468313003
  0.4827989795215325  0.5753436692763682  0.2101118238303842
  0.8440895862619276  0.8648422614458019  0.6701121696284426
  0.9298128298600465  0.9543086721686119  0.4766190432242943
  0.5389813855029817  0.4525382547057808  0.6522800411635481
  0.0844354072844326  0.0114486618960840  0.5182972850497907
  0.3010943584596606  0.8794548097672042  0.7525167355402655
  0.6313472045205990  0.9269691906296036  0.5760075037387875
  0.3000148329203408  0.2323351160188460  0.5112446912686720
  0.6164008123861120  0.4637488108541310  0.4465355650988321
  0.5012342754267235  0.1128430495689932  0.7819785627967650
  0.0000144824561756  0.7738473546419352  0.2599682752173675
  0.3145929281537921  0.4875310326510611  0.2881837920688464
  0.3895014145709542  0.5003891215190092  0.6554969903904552
  0.9316974798235564  0.3933130741371054  0.7379785588614508
  0.2949421124734664  0.7980415455605360  0.3236994618780578
  0.0453692801797870  0.9453154476070023  0.2787521381216287
  0.1975608612593500  0.6762302476421128  0.7447446389564406
  0.4839332599526672  0.6230874345538563  0.7466552287867970
  0.0320397871923983  0.6301546720776678  0.4490524367540074
  0.4405827310975997  0.1988550133379432  0.4172542147827690
  0.6132234215174531  0.6427740998022996  0.3164903718198554
  0.9304110076822693  0.0128970786188803  0.7373462613191744
  0.8070249634036027  0.7194621659331075  0.4900557670761880
  0.8755820688407883  0.4933814391228186  0.2976479459383322
  0.8379040861299049  0.2647314170331988  0.6530438106911648
  0.2261238830775415  0.6420840158827683  0.2476917810105645
  0.1285253242554422  0.5464850585733876  0.6254141517142555
  0.1693867250122252  0.7026689912600098  0.4788594703931309
  0.2846947666009414  0.5871405822477271  0.5110753679009150
  0.4667024672959858  0.5295339166649745  0.4406938248061629
  0.5545736367969141  0.1262230125326579  0.5560542265108944
  0.5714177013519800  0.2796654666586317  0.7399284053867188
  0.8534628415217450  0.4154679584848497  0.5203860715558641
  0.5121212936062829  0.9822168479334478  0.4436001037742300
  0.1054160143942010  0.1878636084518776  0.4926892766998845
  0.4223660205065450  0.9753311308690412  0.7024278108031250
  0.1273190071978779  0.0997501775831605  0.2645719414168277
  0.0789465390143270  0.8409474280146575  0.4756506018566178
  0.3383183123335679  0.1225994681109265  0.7380693645398672
  0.8648448286634977  0.8381896631072353  0.2888101717944848
  0.6660601289760265  0.7506958214256200  0.5125028719757645
  0.5954891830646334  0.9909331561174560  0.2236376581211826
  0.1993165101355850  0.1968114891942754  0.7030875018268687
  0.6035935877458076  0.3144218810367161  0.2584710257018225
  0.3884660118005324  0.8777490224182829  0.4967601221770309
  0.4624466225338636  0.2410921399081563  0.2057933460716457
  0.0570604054298884  0.2691974580785186  0.2690101346107335
  0.3353706240731327  0.3161472225650874  0.2838894326987461
  0.4677697180455573  0.4067179426958597  0.2654228693048146
  0.1458385181890896  0.7901736210550491  0.2592583269407730
  0.2937510468440136  0.7565802781088260  0.5819235635232493
  0.3433425443602331  0.6561642925895433  0.7640884022045893
  0.4872150169258914  0.7320722572941587  0.3085699366153505
  0.1979299867309867  0.9494365220010317  0.2715508972572419
  0.5659664521547266  0.2980061570876677  0.4949000452392875
  0.4192058347313906  0.3690594898772368  0.4953333528098146
  0.4535825514879658  0.0637745070652391  0.2339456239522015
  0.8966734352997985  0.5851175314799129  0.5095689613999904
  0.2696849744571094  0.4123626307176988  0.5050781395162204
  0.6982412631369682  0.1835376352006851  0.5272099377041316
  0.5244158424060464  0.8119594200268463  0.5186221810759238
  0.7389951967324908  0.7422394072321320  0.2628389304398699
 
 -0.37794421E+00 -0.37108791E+00  0.35951035E-02
 -0.37180558E+00 -0.37856166E+00  0.16598636E-02
 -0.36813541E+00 -0.36673500E+00 -0.58683791E-02
 -0.37223214E+00 -0.37288185E+00  0.52212382E-03
 -0.37336305E+00 -0.37053778E+00 -0.14955008E-02
 -0.37358834E+00 -0.36866385E+00  0.33148408E-02
 -0.37170360E+00 -0.37052751E+00 -0.28458697E-02
 -0.37168525E+00 -0.36966845E+00 -0.98396836E-03
 -0.37443161E+00 -0.37098334E+00  0.47807357E-03
 -0.36835579E+00 -0.37423147E+00  0.69829008E-04
 -0.37571825E+00 -0.36902740E+00  0.55553987E-03
 -0.36803134E+00 -0.37484501E+00 -0.26835077E-02
 -0.37204236E+00 -0.37655635E+00  0.14410025E-01
 -0.37188251E+00 -0.37052494E+00 -0.16523587E-01
 -0.37071152E+00 -0.37456457E+00  0.18694484E-01
 -0.37573510E+00 -0.36752153E+00 -0.32996962E-02
 -0.36582093E+00 -0.37928756E+00 -0.13506373E-01
 -0.37476065E+00 -0.36669153E+00  0.11550561E-01
 -0.37049606E+00 -0.37383203E+00 -0.62331910E-02
 -0.37319330E+00 -0.36987939E+00 -0.15202362E-02
 -0.36876440E+00 -0.37584312E+00 -0.10716148E-01
 -0.36890656E+00 -0.36847041E+00  0.10126108E-01
 -0.37156970E+00 -0.37410438E+00  0.70553545E-02
 -0.36712400E+00 -0.36633888E+00 -0.57167175E-02
 -0.38056479E+00 -0.36858204E+00  0.79248709E-03
 -0.36886856E+00 -0.37557721E+00 -0.94034533E-02
 -0.37324532E+00 -0.36983456E+00 -0.10935360E-01
 -0.37374317E+00 -0.37345673E+00  0.42228717E-02
 -0.37203260E+00 -0.37525669E+00 -0.11821836E-01
 -0.37021671E+00 -0.36751168E+00  0.61608885E-03
 -0.37426244E+00 -0.36337558E+00  0.68879977E-03
 -0.37817801E+00 -0.37435688E+00 -0.40591023E-02
 -0.37330376E+00 -0.37047700E+00  0.25701130E-02
 -0.37123377E+00 -0.37359119E+00  0.45745363E-02
 -0.37204004E+00 -0.36906517E+00  0.19682965E-01
 -0.37048838E+00 -0.37840943E+00 -0.14765009E-01
 -0.37058761E+00 -0.37436571E+00  0.22028795E-02
 -0.37136087E+00 -0.37093046E+00 -0.14334065E-01
 -0.36916686E+00 -0.37100732E+00  0.44363353E-02
 -0.37542215E+00 -0.37008678E+00  0.60139194E-02
 -0.36891609E+00 -0.37335341E+00 -0.21767772E-02
 -0.36962195E+00 -0.36861154E+00  0.30329044E-03
 -0.36744893E+00 -0.37315997E+00 -0.13212329E-01
 -0.37590240E+00 -0.36886178E+00  0.29553424E-02
 -0.36959429E+00 -0.37511080E+00  0.46030127E-02
 -0.37154494E+00 -0.36654854E+00  0.33745995E-02
 -0.37081733E+00 -0.37340620E+00 -0.35264220E-02
 -0.36888028E+00 -0.37097125E+00  0.12283169E-03
 -0.37458771E+00 -0.37083395E+00  0.10560854E-02
 -0.37784691E+00 -0.37222389E+00 -0.56198832E-02
 -0.37220741E+00 -0.36942434E+00  0.10384614E-01
 -0.37131366E+00 -0.36981430E+00 -0.21861694E-02
 -0.37097295E+00 -0.37404026E+00  0.24871630E-02
 -0.37195703E+00 -0.37273639E+00  0.88311820E-02
 -0.37318661E+00 -0.37308461E+00  0.57130217E-02
 -0.37324948E+00 -0.36999817E+00 -0.78899716E-02
 -0.37487955E+00 -0.37170287E+00  0.73935865E-02
 -0.37336953E+00 -0.37341628E+00 -0.91550285E-02
 -0.36939164E+00 -0.37264270E+00 -0.68617457E-02
 -0.36945979E+00 -0.37190029E+00 -0.30669428E-02
 -0.36937519E+00 -0.37295775E+00  0.20952746E-02
 -0.36972632E+00 -0.37348616E+00 -0.29648433E-02
 -0.37328450E+00 -0.37177940E+00  0.25743684E-02
 -0.37581936E+00 -0.37392980E+00 -0.51888128E-02
 -0.37116354E+00 -0.37060579E+00  0.65742064E-02
 -0.37089294E+00 -0.37108060E+00  0.26458920E-02
 -0.36964278E+00 -0.37135990E+00 -0.30314742E-02
 -0.37006508E+00 -0.37396085E+00 -0.84817662E-02
 -0.36685417E+00 -0.37308317E+00 -0.75653873E-02
 -0.36651537E+00 -0.37295722E+00  0.13140487E-01
 -0.36983932E+00 -0.37169624E+00 -0.11866182E-02
 -0.37060214E+00 -0.36939213E+00 -0.94742936E-02
 -0.37515979E+00 -0.37040069E+00 -0.54052026E-03
 -0.37536050E+00 -0.37222920E+00 -0.55727956E-02
 -0.37226957E+00 -0.37073528E+00 -0.14116287E-02
 -0.36986752E+00 -0.37252600E+00  0.65530622E-02
 -0.37177911E+00 -0.37440533E+00  0.35524027E-02
 -0.37209578E+00 -0.36962926E+00  0.97929068E-02
 -0.37173428E+00 -0.37257999E+00 -0.90860388E-02
 -0.37495679E+00 -0.37294082E+00 -0.46311290E-02
 -0.37612400E+00 -0.36851857E+00  0.33863674E-02
 -0.37476648E+00 -0.37324762E+00  0.41719709E-02
 -0.36996343E+00 -0.37176186E+00 -0.67946257E-02
 -0.37218060E+00 -0.37144606E+00  0.77835769E-02
 -0.36776428E+00 -0.36913879E+00 -0.58946890E-02
 -0.37166463E+00 -0.37563946E+00  0.79038869E-02
 -0.36999803E+00 -0.37138343E+00 -0.19366467E-02
 -0.37408027E+00 -0.37199030E+00  0.15983934E-02
 -0.37267177E+00 -0.37229052E+00  0.26130631E-02
 -0.37015804E+00 -0.36877919E+00 -0.78514895E-02
 -0.37152498E+00 -0.37099097E+00 -0.87317253E-03
 -0.36597560E+00 -0.37201268E+00  0.42675463E-02
 -0.37056007E+00 -0.37180774E+00  0.71932949E-02
 -0.36889826E+00 -0.37197428E+00 -0.29607620E-03
 -0.37063030E+00 -0.37247799E+00  0.58623431E-03
 -0.37345471E+00 -0.36898149E+00 -0.64646703E-03
  0.12746273E+00  0.12759949E+00 -0.77118734E-03
  0.12780085E+00  0.12946175E+00  0.11206531E-02
  0.12813494E+00  0.12836074E+00 -0.11242141E-02
  0.12767338E+00  0.12868064E+00 -0.22272965E-02
  0.12841396E+00  0.12932047E+00 -0.12097262E-02
  0.12824672E+00  0.12908215E+00  0.80627456E-03
  0.12863952E+00  0.12902586E+00  0.25519456E-02
  0.12941411E+00  0.12484674E+00 -0.43053979E-02
  0.12889340E+00  0.12757043E+00 -0.50435742E-03
  0.12772194E+00  0.12609121E+00  0.25904364E-02
  0.12670208E+00  0.13132672E+00 -0.15408288E-02
  0.12848086E+00  0.12940047E+00  0.10807213E-02
  0.12911651E+00  0.12754503E+00  0.92681709E-04
  0.12661896E+00  0.12749873E+00  0.54797915E-02
  0.12848743E+00  0.13070403E+00  0.34566447E-02
  0.12831997E+00  0.12788616E+00 -0.29083757E-03
  0.12661976E+00  0.12987260E+00  0.97116492E-03
  0.12518512E+00  0.12340505E+00 -0.46367715E-02
  0.12736111E+00  0.12840949E+00 -0.11938116E-02
  0.12891819E+00  0.12881860E+00 -0.40290671E-03
  0.12831723E+00  0.12717172E+00  0.38778907E-03
  0.12928998E+00  0.12711213E+00  0.13004121E-02
  0.12729512E+00  0.12806717E+00  0.10398303E-02
  0.12638075E+00  0.12881593E+00  0.13789771E-02
  0.12887395E+00  0.12808759E+00 -0.11361309E-02
  0.12903119E+00  0.12721240E+00  0.21360835E-02
  0.12741570E+00  0.12629465E+00 -0.82086247E-04
  0.13238072E+00  0.13053127E+00 -0.92906563E-03
  0.12721396E+00  0.12856629E+00 -0.21252481E-02
  0.12742189E+00  0.12602669E+00 -0.18272486E-04
  0.12841898E+00  0.13016817E+00 -0.78707150E-03
  0.13021016E+00  0.12793245E+00 -0.66656238E-03
  0.12803876E+00  0.12881417E+00  0.14135095E-02
  0.12750383E+00  0.12777542E+00 -0.11316950E-02
  0.12666963E+00  0.12782161E+00 -0.10010898E-02
  0.12880251E+00  0.12924144E+00  0.12656608E-02
  0.12724935E+00  0.12816575E+00  0.81126113E-05
  0.12865237E+00  0.12973735E+00 -0.86920134E-03
  0.13250906E+00  0.12770845E+00 -0.79362768E-02
  0.12872726E+00  0.12841346E+00 -0.71014502E-03
  0.12764647E+00  0.12642028E+00  0.36181566E-02
  0.12642412E+00  0.12852411E+00 -0.62339664E-03
  0.12797080E+00  0.12873708E+00 -0.10222101E-02
  0.12783797E+00  0.12803450E+00 -0.18717428E-02
  0.12761683E+00  0.12777126E+00 -0.17548513E-02
  0.12837710E+00  0.12801589E+00  0.14594026E-02
  0.12759730E+00  0.12846891E+00 -0.61222117E-02
  0.12838562E+00  0.12937416E+00  0.39925400E-03
  0.12882063E+00  0.12956433E+00  0.71499779E-03
  0.12819142E+00  0.12869453E+00  0.70757640E-03
  0.12710952E+00  0.12702869E+00 -0.99158348E-03
  0.12673499E+00  0.12776490E+00  0.50540234E-02
  0.13021556E+00  0.12560244E+00  0.16622102E-02
  0.12763582E+00  0.12526426E+00 -0.46749769E-02
  0.12834971E+00  0.12911243E+00 -0.33017729E-02
  0.13027829E+00  0.13082846E+00  0.10088622E-02
  0.12724373E+00  0.12873902E+00 -0.97638727E-03
  0.12869847E+00  0.12724638E+00 -0.41631406E-03
  0.12798282E+00  0.12904245E+00 -0.27376359E-03
  0.12516046E+00  0.12627337E+00 -0.14459127E-02
  0.12716412E+00  0.12767126E+00  0.86310639E-03
  0.12591319E+00  0.12887609E+00 -0.26387012E-02
  0.12936357E+00  0.12857063E+00  0.15828994E-02
  0.12881847E+00  0.12901870E+00 -0.69564395E-03
  0.12635122E+00  0.12924543E+00  0.99155352E-03
  0.12960726E+00  0.12699380E+00 -0.59607187E-03
  0.13088822E+00  0.12673192E+00  0.73929446E-02
  0.12789792E+00  0.12797431E+00 -0.22731887E-03
  0.12655358E+00  0.12813313E+00  0.12286555E-02
  0.12791707E+00  0.12839804E+00 -0.83751174E-04
  0.12771108E+00  0.12788191E+00 -0.91706945E-03
  0.12706876E+00  0.12888602E+00  0.67281339E-03
  0.12838930E+00  0.12842724E+00 -0.16524715E-02
  0.12808783E+00  0.12833455E+00  0.39479343E-03
  0.12924629E+00  0.12847227E+00  0.92648508E-04
  0.13091249E+00  0.12785029E+00  0.22266656E-02
  0.12869271E+00  0.12846319E+00  0.19503354E-02
  0.12873494E+00  0.12963052E+00 -0.10109277E-02
  0.12792639E+00  0.12833516E+00  0.43392010E-03
  0.12726486E+00  0.12869293E+00 -0.31451114E-02
  0.12851137E+00  0.12935139E+00  0.25293692E-03
  0.12828342E+00  0.12815388E+00  0.40499789E-03
  0.12840343E+00  0.12792762E+00 -0.56347589E-03
  0.12903936E+00  0.12902775E+00  0.62119524E-03
  0.12790418E+00  0.12679874E+00  0.11642724E-02
  0.12903244E+00  0.12658789E+00  0.41185162E-02
  0.12907126E+00  0.12846128E+00  0.69506252E-03
  0.12944940E+00  0.12778989E+00 -0.17133830E-02
  0.12916861E+00  0.12810823E+00  0.61751625E-04
  0.13077124E+00  0.12842236E+00 -0.12617187E-02
  0.12711829E+00  0.12874829E+00 -0.25289627E-03
  0.12833808E+00  0.12747076E+00  0.27386952E-02
  0.12838634E+00  0.12900584E+00 -0.35980271E-03
  0.12795137E+00  0.12704543E+00 -0.50454027E-03
  0.12925760E+00  0.12824216E+00  0.12934249E-02
  0.12756615E+00  0.12726039E+00  0.30209097E-02
  0.12905140E+00  0.12717979E+00  0.91967308E-03
  0.12878538E+00  0.12795423E+00 -0.48914090E-02
  0.12692999E+00  0.12806701E+00 -0.21026349E-02
  0.12739032E+00  0.12706490E+00  0.26834849E-02
  0.12823067E+00  0.12791939E+00 -0.11295098E-02
  0.12815282E+00  0.12868808E+00 -0.14354278E-02
  0.12750791E+00  0.12913984E+00 -0.22422142E-02
  0.12854873E+00  0.12736207E+00  0.11536268E-02
  0.12801857E+00  0.12859279E+00 -0.16487223E-02
  0.12739902E+00  0.12991999E+00  0.12052824E-02
  0.12809221E+00  0.12820852E+00 -0.23003149E-03
  0.12700869E+00  0.13012061E+00  0.38860231E-02
  0.12791468E+00  0.12858281E+00 -0.32100676E-04
  0.12913853E+00  0.13034104E+00  0.21835253E-02
  0.12787304E+00  0.12641366E+00 -0.39095647E-03
  0.12874462E+00  0.12889652E+00  0.34200205E-02
  0.12743948E+00  0.12628990E+00 -0.10945058E-03
  0.12717089E+00  0.12912838E+00  0.16819404E-02
  0.12841062E+00  0.12873553E+00  0.22839085E-02
  0.12959158E+00  0.12752143E+00 -0.20875328E-03
  0.12745383E+00  0.12818524E+00 -0.29288558E-03
  0.12920887E+00  0.13093464E+00 -0.23197613E-02
  0.12883896E+00  0.12599053E+00  0.93957396E-03
  0.12763290E+00  0.12860360E+00 -0.72308569E-03
  0.12691190E+00  0.12791073E+00  0.14532831E-03
  0.12745793E+00  0.12719290E+00  0.11143936E-02
  0.12767995E+00  0.12906429E+00  0.73030757E-02
  0.12786654E+00  0.12760625E+00 -0.58056816E-03
  0.12736988E+00  0.12870456E+00 -0.15170985E-02
  0.12942987E+00  0.12634913E+00  0.10404216E-03
  0.12806564E+00  0.12825937E+00 -0.16053864E-02
  0.12836605E+00  0.12825945E+00  0.16965666E-02
 
           1
  0.547311962346887     
  0.10000000E+01  0.00000000E+00  0.00000000E+00  0.00000000E+00
  0.23560086E+00  0.12339783E+00  0.99755873E+00
  0.23467400E+00  0.28970288E+00  0.35528378E-02
  0.23433509E+00  0.45512273E+00  0.94064136E-02
  0.23469481E+00  0.62414470E+00  0.26066123E-02
  0.23430311E+00  0.78998019E+00  0.99570659E+00
  0.23486592E+00  0.95651981E+00  0.99338350E+00
  0.36130622E+00  0.20603634E+00  0.99047663E+00
  0.35940671E+00  0.37218838E+00  0.99731541E+00
  0.35869147E+00  0.54074424E+00  0.77719580E-02
  0.35902857E+00  0.70751475E+00  0.21229333E-01
  0.35919486E+00  0.87425251E+00  0.99939765E+00
  0.35982907E+00  0.39904240E-01  0.98585404E+00
  0.48319859E+00  0.12321545E+00  0.87491010E-02
  0.48438692E+00  0.28905256E+00  0.98643873E+00
  0.48368260E+00  0.45664559E+00  0.16770171E-01
  0.48404295E+00  0.62493977E+00  0.11550915E-01
  0.48287445E+00  0.79068429E+00  0.33305408E-02
  0.48390431E+00  0.95868039E+00  0.18744828E-01
  0.60838660E+00  0.20733777E+00  0.99547033E+00
  0.60773848E+00  0.37391332E+00  0.64301697E-02
  0.60879104E+00  0.53956809E+00  0.99435298E+00
  0.60854152E+00  0.70633134E+00  0.99880337E+00
  0.60805283E+00  0.87433674E+00  0.80519150E-02
  0.60741519E+00  0.40411904E-01  0.66794839E-02
  0.73182326E+00  0.12311404E+00  0.17003072E-01
  0.73108165E+00  0.29013336E+00  0.96777528E-02
  0.73242004E+00  0.45644005E+00  0.99650386E+00
  0.73269025E+00  0.62212952E+00  0.30616595E-02
  0.73278620E+00  0.79148977E+00  0.97300499E+00
  0.73333694E+00  0.95607130E+00  0.15641168E-02
  0.85831361E+00  0.20648612E+00  0.19065151E-01
  0.85732891E+00  0.37369095E+00  0.56600778E-02
  0.85752402E+00  0.53992172E+00  0.98881973E+00
  0.85783003E+00  0.70807924E+00  0.99785963E-03
  0.85964028E+00  0.87298818E+00  0.45025768E-02
  0.85971015E+00  0.40127683E-01  0.99153460E+00
  0.98540614E+00  0.12291809E+00  0.93928651E-02
  0.98358220E+00  0.28940493E+00  0.74314475E-02
  0.98515749E+00  0.45714855E+00  0.17845119E-02
  0.98363862E+00  0.62390856E+00  0.98022341E+00
  0.98304271E+00  0.79102911E+00  0.99031047E+00
  0.98434233E+00  0.95661119E+00  0.99656964E+00
  0.10930770E+00  0.20513061E+00  0.21387711E-02
  0.11013027E+00  0.37377002E+00  0.11465454E-01
  0.10849108E+00  0.53915955E+00  0.99412315E+00
  0.10921671E+00  0.70667593E+00  0.98980513E+00
  0.10839102E+00  0.87413935E+00  0.99667303E+00
  0.10859317E+00  0.39516484E-01  0.72128517E-02
  0.31866228E+00  0.12380072E+00  0.99265175E+00
  0.31707542E+00  0.28868052E+00  0.99786695E+00
  0.31702344E+00  0.45581856E+00  0.61215516E-02
  0.31725978E+00  0.62367068E+00  0.68952870E-02
  0.31706231E+00  0.79151306E+00  0.82208871E-02
  0.31732759E+00  0.95692262E+00  0.99990152E+00
  0.44325286E+00  0.20593638E+00  0.99855044E+00
  0.44209416E+00  0.37258700E+00  0.98668773E+00
  0.44194470E+00  0.54163283E+00  0.99472684E+00
  0.44197636E+00  0.70602640E+00  0.14813924E-01
  0.44175122E+00  0.87521276E+00  0.99923615E+00
  0.44330235E+00  0.40477710E-01  0.97091532E+00
  0.56748670E+00  0.12291940E+00  0.99214205E+00
  0.56770221E+00  0.28973269E+00  0.13274505E-03
  0.56695795E+00  0.45715853E+00  0.99032901E+00
  0.56722862E+00  0.62227975E+00  0.16980557E-02
  0.56807261E+00  0.79027654E+00  0.10687923E-01
  0.56717368E+00  0.95812583E+00  0.99676785E+00
  0.69048545E+00  0.20610433E+00  0.57774653E-02
  0.69091603E+00  0.37327115E+00  0.99642783E+00
  0.69149023E+00  0.53996066E+00  0.98970604E+00
  0.69305289E+00  0.70732547E+00  0.11512998E-01
  0.69183458E+00  0.87393892E+00  0.43680014E-02
  0.68993436E+00  0.39476697E-01  0.65993680E-02
  0.81640137E+00  0.12378716E+00  0.19884619E-01
  0.81563812E+00  0.28926597E+00  0.93628161E-02
  0.81599111E+00  0.45694736E+00  0.99734343E+00
  0.81608603E+00  0.62425939E+00  0.99144838E+00
  0.81628450E+00  0.79084098E+00  0.99373617E+00
  0.81681128E+00  0.95573602E+00  0.84547024E-02
  0.94214009E+00  0.20608985E+00  0.17501356E-01
  0.94237389E+00  0.37265252E+00  0.10703529E-01
  0.94091556E+00  0.54038504E+00  0.98871736E+00
  0.94009932E+00  0.70636812E+00  0.98973811E+00
  0.94106663E+00  0.87408922E+00  0.98493207E+00
  0.94407418E+00  0.40799600E-01  0.14617916E-01
  0.67776940E-01  0.12313342E+00  0.12251371E-01
  0.67673120E-01  0.29001175E+00  0.22640602E-01
  0.68582141E-01  0.45579287E+00  0.35770076E-02
  0.67166896E-01  0.62230311E+00  0.98947848E+00
  0.66886144E-01  0.78993468E+00  0.99925133E+00
  0.67235930E-01  0.95735742E+00  0.99322555E+00
  0.19295345E+00  0.20667662E+00  0.57977380E-02
  0.19345176E+00  0.37274861E+00  0.44087586E-02
  0.19289779E+00  0.53956186E+00  0.75105137E-02
  0.19336221E+00  0.70695143E+00  0.99662521E+00
  0.19308643E+00  0.87373557E+00  0.99508033E+00
  0.19294174E+00  0.39853570E-01  0.99452885E+00
  0.32155353E+00  0.32635697E+00  0.72734758E+00
  0.36910415E+00  0.64998359E+00  0.30796477E+00
  0.82607736E+00  0.56368345E+00  0.72195215E+00
  0.88202193E+00  0.17901853E+00  0.22197095E+00