2x2x2           This is a comment line
 0               Automatic generation of k-points
Monkhorst        M use Monkhorst Pack
2 2 2           grid
 .0 .0 .0        shift

