6-0_AlNNT  
      1.000000000000
   48.028      0.00000000   0.00000000
   0.00000000   48.028    0.00000000
   0.00000000   0.00000000   10.8926
 N Al
 24   24
Cartesian
28.2061     27.107      2.72316
25.6056     28.6083      2.72316
23.0052     27.107      2.72316
23.0052     24.1043      2.72316
25.6056     22.6029      2.72316
28.2061     24.1043      2.72316
28.6083     25.6056      0
27.107     28.2061      0
24.1043     28.2061      0
22.6029     25.6056      0
24.1043     23.0052      0
27.107     23.0052      0
28.2061     27.107      8.16948
25.6056     28.6083      8.16948
23.0052     27.107      8.16948
23.0052     24.1043      8.16948
25.6056     22.6029      8.16948
28.2061     24.1043      8.16948
28.6083     25.6056      5.44632
27.107     28.2061      5.44632
24.1043     28.2061      5.44632
22.6029     25.6056      5.44632
24.1043     23.0052      5.44632
27.107     23.0052      5.44632
27.107     28.2061      1.81544
24.1043     28.2061      1.81544
22.6029     25.6056      1.81544
24.1043     23.0052      1.81544
27.107     23.0052      1.81544
28.6083     25.6056      1.81544
28.2061     27.107      -0.90772
25.6056     28.6083      -0.90772
23.0052     27.107      -0.90772
23.0052     24.1043      -0.90772
25.6056     22.6029      -0.90772
28.2061     24.1043      -0.90772
27.107     28.2061      7.26176
24.1043     28.2061      7.26176
22.6029     25.6056      7.26176
24.1043     23.0052      7.26176
27.107     23.0052      7.26176
28.6083     25.6056      7.26176
28.2061     27.107      4.5386
25.6056     28.6083      4.5386
23.0052     27.107      4.5386
23.0052     24.1043      4.5386
25.6056     22.6029      4.5386
28.2061     24.1043      4.5386
