Al 
 1.0000000000000000
    20.0464772466386236    0.0000000000000000    0.0000000000000000
    10.0232386233193118   17.3607585519757706    0.0000000000000000
     0.0000000000000000    0.0000000000000000    7.0148057706539539
 147
Cartesian
  1.4318912319027588  0.8267027881893224  0.0000000000000000
  4.2956736957082766  0.8267027881893224  0.0000000000000000
  7.1594561595137947  0.8267027881893224  0.0000000000000000
 10.0232386233193118  0.8267027881893224  0.0000000000000000
 12.8870210871248290  0.8267027881893224  0.0000000000000000
 15.7508035509303461  0.8267027881893224  0.0000000000000000
 18.6145860147358668  0.8267027881893224  0.0000000000000000
  2.8637824638055176  3.3068111527572897  0.0000000000000000
  5.7275649276110352  3.3068111527572897  0.0000000000000000
  8.5913473914165532  3.3068111527572897  0.0000000000000000
 11.4551298552220704  3.3068111527572897  0.0000000000000000
 14.3189123190275875  3.3068111527572897  0.0000000000000000
 17.1826947828331065  3.3068111527572897  0.0000000000000000
 20.0464772466386236  3.3068111527572897  0.0000000000000000
  4.2956736957082766  5.7869195173252574  0.0000000000000000
  7.1594561595137947  5.7869195173252574  0.0000000000000000
 10.0232386233193118  5.7869195173252574  0.0000000000000000
 12.8870210871248290  5.7869195173252574  0.0000000000000000
 15.7508035509303461  5.7869195173252574  0.0000000000000000
 18.6145860147358633  5.7869195173252574  0.0000000000000000
 21.4783684785413840  5.7869195173252574  0.0000000000000000
  5.7275649276110352  8.2670278818932257  0.0000000000000000
  8.5913473914165532  8.2670278818932257  0.0000000000000000
 11.4551298552220722  8.2670278818932257  0.0000000000000000
 14.3189123190275893  8.2670278818932257  0.0000000000000000
 17.1826947828331065  8.2670278818932257  0.0000000000000000
 20.0464772466386236  8.2670278818932257  0.0000000000000000
 22.9102597104441408  8.2670278818932257  0.0000000000000000
  7.1594561595137938 10.7471362464611904  0.0000000000000000
 10.0232386233193118 10.7471362464611904  0.0000000000000000
 12.8870210871248290 10.7471362464611904  0.0000000000000000
 15.7508035509303461 10.7471362464611904  0.0000000000000000
 18.6145860147358633 10.7471362464611904  0.0000000000000000
 21.4783684785413804 10.7471362464611904  0.0000000000000000
 24.3421509423469011 10.7471362464611904  0.0000000000000000
  8.5913473914165532 13.2272446110291586  0.0000000000000000
 11.4551298552220704 13.2272446110291586  0.0000000000000000
 14.3189123190275893 13.2272446110291586  0.0000000000000000
 17.1826947828331065 13.2272446110291586  0.0000000000000000
 20.0464772466386236 13.2272446110291586  0.0000000000000000
 22.9102597104441408 13.2272446110291586  0.0000000000000000
 25.7740421742496579 13.2272446110291586  0.0000000000000000
 10.0232386233193118 15.7073529755971251  0.0000000000000000
 12.8870210871248290 15.7073529755971251  0.0000000000000000
 15.7508035509303479 15.7073529755971251  0.0000000000000000
 18.6145860147358633 15.7073529755971251  0.0000000000000000
 21.4783684785413840 15.7073529755971251  0.0000000000000000
 24.3421509423468976 15.7073529755971251  0.0000000000000000
 27.2059334061524183 15.7073529755971251  0.0000000000000000
  0.0000000000000000  1.6534055763786448  2.3382685902179845
  2.8637824638055176  1.6534055763786448  2.3382685902179845
  5.7275649276110352  1.6534055763786448  2.3382685902179845
  8.5913473914165532  1.6534055763786448  2.3382685902179845
 11.4551298552220704  1.6534055763786448  2.3382685902179845
 14.3189123190275893  1.6534055763786448  2.3382685902179845
 17.1826947828331065  1.6534055763786448  2.3382685902179845
  1.4318912319027586  4.1335139409466120  2.3382685902179845
  4.2956736957082757  4.1335139409466120  2.3382685902179845
  7.1594561595137938  4.1335139409466120  2.3382685902179845
 10.0232386233193118  4.1335139409466120  2.3382685902179845
 12.8870210871248290  4.1335139409466120  2.3382685902179845
 15.7508035509303479  4.1335139409466120  2.3382685902179845
 18.6145860147358633  4.1335139409466120  2.3382685902179845
  2.8637824638055176  6.6136223055145793  2.3382685902179845
  5.7275649276110352  6.6136223055145793  2.3382685902179845
  8.5913473914165532  6.6136223055145793  2.3382685902179845
 11.4551298552220704  6.6136223055145793  2.3382685902179845
 14.3189123190275875  6.6136223055145793  2.3382685902179845
 17.1826947828331065  6.6136223055145793  2.3382685902179845
 20.0464772466386236  6.6136223055145793  2.3382685902179845
  4.2956736957082766  9.0937306700825467  2.3382685902179845
  7.1594561595137947  9.0937306700825467  2.3382685902179845
 10.0232386233193118  9.0937306700825467  2.3382685902179845
 12.8870210871248290  9.0937306700825467  2.3382685902179845
 15.7508035509303461  9.0937306700825467  2.3382685902179845
 18.6145860147358668  9.0937306700825467  2.3382685902179845
 21.4783684785413840  9.0937306700825467  2.3382685902179845
  5.7275649276110361 11.5738390346505149  2.3382685902179845
  8.5913473914165532 11.5738390346505149  2.3382685902179845
 11.4551298552220722 11.5738390346505149  2.3382685902179845
 14.3189123190275893 11.5738390346505149  2.3382685902179845
 17.1826947828331065 11.5738390346505149  2.3382685902179845
 20.0464772466386236 11.5738390346505149  2.3382685902179845
 22.9102597104441443 11.5738390346505149  2.3382685902179845
  7.1594561595137947 14.0539473992184831  2.3382685902179845
 10.0232386233193118 14.0539473992184831  2.3382685902179845
 12.8870210871248290 14.0539473992184831  2.3382685902179845
 15.7508035509303461 14.0539473992184831  2.3382685902179845
 18.6145860147358633 14.0539473992184831  2.3382685902179845
 21.4783684785413840 14.0539473992184831  2.3382685902179845
 24.3421509423469011 14.0539473992184831  2.3382685902179845
  8.5913473914165532 16.5340557637864514  2.3382685902179845
 11.4551298552220704 16.5340557637864514  2.3382685902179845
 14.3189123190275893 16.5340557637864514  2.3382685902179845
 17.1826947828331065 16.5340557637864514  2.3382685902179845
 20.0464772466386236 16.5340557637864514  2.3382685902179845
 22.9102597104441443 16.5340557637864514  2.3382685902179845
 25.7740421742496579 16.5340557637864514  2.3382685902179845
  0.0000000000000000  0.0000000000000000  4.6765371804359690
  2.8637824638055176  0.0000000000000000  4.6765371804359690
  5.7275649276110352  0.0000000000000000  4.6765371804359690
  8.5913473914165532  0.0000000000000000  4.6765371804359690
 11.4551298552220704  0.0000000000000000  4.6765371804359690
 14.3189123190275875  0.0000000000000000  4.6765371804359690
 17.1826947828331065  0.0000000000000000  4.6765371804359690
  1.4318912319027588  2.4801083645679673  4.6765371804359690
  4.2956736957082766  2.4801083645679673  4.6765371804359690
  7.1594561595137938  2.4801083645679673  4.6765371804359690
 10.0232386233193118  2.4801083645679673  4.6765371804359690
 12.8870210871248290  2.4801083645679673  4.6765371804359690
 15.7508035509303461  2.4801083645679673  4.6765371804359690
 18.6145860147358668  2.4801083645679673  4.6765371804359690
  2.8637824638055176  4.9602167291359347  4.6765371804359690
  5.7275649276110352  4.9602167291359347  4.6765371804359690
  8.5913473914165532  4.9602167291359347  4.6765371804359690
 11.4551298552220704  4.9602167291359347  4.6765371804359690
 14.3189123190275875  4.9602167291359347  4.6765371804359690
 17.1826947828331065  4.9602167291359347  4.6765371804359690
 20.0464772466386236  4.9602167291359347  4.6765371804359690
  4.2956736957082766  7.4403250937039020  4.6765371804359690
  7.1594561595137947  7.4403250937039020  4.6765371804359690
 10.0232386233193118  7.4403250937039020  4.6765371804359690
 12.8870210871248290  7.4403250937039020  4.6765371804359690
 15.7508035509303461  7.4403250937039020  4.6765371804359690
 18.6145860147358633  7.4403250937039020  4.6765371804359690
 21.4783684785413840  7.4403250937039020  4.6765371804359690
  5.7275649276110352  9.9204334582718694  4.6765371804359690
  8.5913473914165532  9.9204334582718694  4.6765371804359690
 11.4551298552220704  9.9204334582718694  4.6765371804359690
 14.3189123190275893  9.9204334582718694  4.6765371804359690
 17.1826947828331065  9.9204334582718694  4.6765371804359690
 20.0464772466386236  9.9204334582718694  4.6765371804359690
 22.9102597104441408  9.9204334582718694  4.6765371804359690
  7.1594561595137938 12.4005418228398376  4.6765371804359690
 10.0232386233193118 12.4005418228398376  4.6765371804359690
 12.8870210871248290 12.4005418228398376  4.6765371804359690
 15.7508035509303461 12.4005418228398376  4.6765371804359690
 18.6145860147358633 12.4005418228398376  4.6765371804359690
 21.4783684785413804 12.4005418228398376  4.6765371804359690
 24.3421509423469011 12.4005418228398376  4.6765371804359690
  8.5913473914165532 14.8806501874078041  4.6765371804359690
 11.4551298552220704 14.8806501874078041  4.6765371804359690
 14.3189123190275893 14.8806501874078041  4.6765371804359690
 17.1826947828331065 14.8806501874078041  4.6765371804359690
 20.0464772466386236 14.8806501874078041  4.6765371804359690
 22.9102597104441408 14.8806501874078041  4.6765371804359690
 25.7740421742496579 14.8806501874078041  4.6765371804359690
