undoped                                 
   1.00000000000000     
    17.3520000000000003    0.0000000000000000    0.0000000000000000
     0.0000000000000000   15.0272728064999992    0.0000000000000000
     0.0000000000000000    0.0000000000000000   10.6393173196999999
   B    N    Al
    48    48   128
Direct
  0.9807711454672544  0.0006642746918160  0.0435750227555354
  0.9864436404140738  0.1591550139598581  0.0194417267573293
  0.9834962751887583  0.3274774011203843  0.0242622428071208
  0.9826307577244869  0.4980919589603883  0.9681706772700545
  0.9872750825647197  0.6641619021925070  0.9945851673586313
  0.9853048153602846  0.8272515616785535  0.0169282685199483
  0.1079908947235379  0.0798426592839091  0.0421523791599410
  0.1110844838129864  0.2419915940784497  0.0548220195468710
  0.1090890213543860  0.4024759245065781  0.0006282037196451
  0.1106320469613757  0.5711722946608443  0.9733268581768851
  0.1086750452696838  0.7459534118487572  0.9567832714155788
  0.1029415027477210  0.9166497817352112  0.9968486858212638
  0.2321094834308177  0.9900090351708924  0.0639201092271501
  0.2313192837571182  0.1618858549896002  0.0379291745313064
  0.2407023909317844  0.3273480698032606  0.0213301454468302
  0.2368504938962824  0.4908034094195622  0.9914060229646789
  0.2336822751745918  0.6587644455480582  0.9405238465380229
  0.2287335850337447  0.8239817342871707  0.9949953243617704
  0.3581873221281251  0.0798723951095497  0.0689337490950100
  0.3606006989795565  0.2450958256298384  0.0456573642544445
  0.3609541440480198  0.4040477449367743  0.9739373201432134
  0.3602858346509160  0.5688822309763434  0.9301404538741922
  0.3598367106607038  0.7375497610938997  0.9943846388581341
  0.3580318223783608  0.9065285333592645  0.0341563431996711
  0.4812703219424946  0.9920162663105805  0.0610510573549791
  0.4883151741628836  0.1671567579173915  0.0218754398030276
  0.4856296550374784  0.3329845562741035  0.9886149431880743
  0.4844368718333059  0.4910845961278702  0.9767820152432353
  0.4826401354014311  0.6621048693019032  0.9220345526015727
  0.4864744379526274  0.8260807676783027  0.0007283696187079
  0.6046649105102679  0.0814219426811464  0.0496835099166142
  0.6133607315568862  0.2528917472815109  0.0173129404208179
  0.6131949108112764  0.4148116666950060  0.9612387237031661
  0.6092860385472573  0.5802032222350642  0.9346665570006834
  0.6136373342260422  0.7485501485586593  0.9510723268000707
  0.6103026154489536  0.9191448201439330  0.0178250323303956
  0.7347437501391808  0.0038153852406375  0.0100609779072864
  0.7341008772267389  0.1652618868831391  0.0261435128803998
  0.7352102447706095  0.3293578785523593  0.9757824516424055
  0.7331605743623222  0.5021715096844923  0.9376425755199109
  0.7355134826168862  0.6687742805367870  0.9785373441145762
  0.7388818779583701  0.8353962486812005  0.0097114018718631
  0.8562854614630547  0.0753853621376745  0.0611538194595580
  0.8637190024216950  0.2507146095059819  0.0467916968745575
  0.8587909219267884  0.4071188549540182  0.9511431955195953
  0.8566092594771323  0.5730381941137507  0.9852674692151695
  0.8616433609520646  0.7393008555158537  0.0330792186234624
  0.8606185958508904  0.9051737357019408  0.0518986378657008
  0.0646787121278329  0.0004695680790144  0.0227367700130686
  0.0661361342246490  0.1605396845621411  0.0651039117729154
  0.0701143717890464  0.3121700948627408  0.9836085596167886
  0.0672601174893633  0.4890276209365457  0.9699463756840470
  0.0667601106251545  0.6585504018277111  0.9788649652461943
  0.0644993625945550  0.8296405366539897  0.9794969926612411
  0.1928338621319856  0.0773729755006791  0.0349832013825705
  0.1970465205463262  0.2448738904387639  0.0593729746322543
  0.1960816283228403  0.4080472346984251  0.0152954752815442
  0.1962919877776525  0.5732910833381067  0.9586566845200865
  0.1877785776137125  0.7396215833794162  0.9923600066691853
  0.1890493696724497  0.9105232549959380  0.0072426446846728
  0.3169693505691131  0.9918355661137548  0.0407655134503264
  0.3153403244962620  0.1623090208713722  0.0473812560243494
  0.3245323101930079  0.3336634054728936  0.0510362925484923
  0.3180826945168714  0.4871592779009702  0.9567473647827298
  0.3190596705361042  0.6533811700157527  0.9493657268136484
  0.3110257363372849  0.8210669443012307  0.9999928304593398
  0.4470851206256079  0.0853610716070174  0.0324953512858964
  0.4489911868773027  0.2487546933516754  0.0214581122938076
  0.4432824295044774  0.4073051984842994  0.9506942015741252
  0.4428026852829819  0.5713253191584861  0.9431641939511693
  0.4428894661265876  0.7448101496095570  0.9806219456833422
  0.4439677876831417  0.9071236195474660  0.0037370253896410
  0.5652967744791857  0.9994046907127706  0.0584888961222342
  0.5690190368575673  0.1684145346852043  0.0375557301792695
  0.5706065234967589  0.3332937707028980  0.9786733696183375
  0.5714206958301032  0.4971277495414911  0.9730073388385001
  0.5658343854445201  0.6663314520691598  0.9590444986049366
  0.5725449192565917  0.8351499797324472  0.9917137248875341
  0.6883123875740010  0.0795899911903627  0.0357403696029931
  0.6962105860604867  0.2498638575841008  0.0188772479481590
  0.6938676209981497  0.4140477726153236  0.9613000049028924
  0.6942500753901333  0.5843400430219049  0.9633927529241036
  0.6982135111904787  0.7529604570344016  0.9907238572307071
  0.6952747964583481  0.9185724844650446  0.0025399930520795
  0.8174629417354046  0.9948722586849275  0.0255735274483045
  0.8188197507864142  0.1650024952695011  0.0459651863999145
  0.8185673773637936  0.3220655319577390  0.9752164271057704
  0.8168286856168382  0.4966285623650756  0.9346062479593769
  0.8168988846676474  0.6593003900656189  0.9961041233003560
  0.8229558019694627  0.8263172036701603  0.9791787563532499
  0.9410150454083341  0.0835788711621185  0.0526452697443773
  0.9434004464676625  0.2434132345387885  0.0105832341278363
  0.9439685948670238  0.4084374510028476  0.9614012414810049
  0.9401498199066811  0.5798533591126516  0.9658617386288726
  0.9462551225170327  0.7447838789230249  0.0075086331225679
  0.9453660141187391  0.9114066632620229  0.0399203016733559
  0.0651604738123343  0.0112231553511430  0.7661437331404763
  0.0853647624801443  0.3740379178327441  0.4390589773753532
  0.5537927322992545  0.2506968183330621  0.7917661086725624
  0.6870054834835352  0.9182641427918474  0.2988116070692464
  0.7047410096727921  0.2042971043358704  0.7311911181073498
  0.0947423561323125  0.1958854264639546  0.7937797140002568
  0.5688879622184642  0.8226075247688670  0.4809486310825621
  0.3512254606265776  0.1862225448763527  0.7658405552002771
  0.9438361649206265  0.1523649907297814  0.8082276679134759
  0.8198773190993587  0.1746709161054806  0.2414646780613802
  0.4393022085657601  0.5439263562708369  0.6928319024975281
  0.0395940497751999  0.6925240930917808  0.5297180687396761
  0.9051924702686159  0.5689791973992243  0.6467856102316218
  0.1618773168461839  0.5931356837080418  0.2100377171028289
  0.4510223505770684  0.6235843005036419  0.1653752011496551
  0.8453865003685006  0.4044702525784938  0.6609856917641896
  0.5744832932461380  0.3457343772943203  0.2712888266947924
  0.7011647911341978  0.9402813181301910  0.7917109490266454
  0.9373330837097215  0.7833766306243284  0.3895280448065711
  0.2382844749774457  0.3857472731829066  0.4625072115905406
  0.4462146271772704  0.7141115399824022  0.7396527213425947
  0.1988582398265052  0.9305719194454409  0.8156901388507216
  0.6999302235719818  0.3889530115428924  0.7340594127759169
  0.0409415419914181  0.6914129721092109  0.2394063287660372
  0.8261137432711834  0.8449406504462352  0.7895738604417681
  0.5810842013992218  0.6634796618688309  0.3298919815077775
  0.7694873863787591  0.5411035173577766  0.7235050302135707
  0.3081807713357504  0.1637368316346761  0.2713003003530836
  0.3579045260192023  0.2781638055698606  0.4842019836687460
  0.4238095566373512  0.9853373392025366  0.5523273505436092
  0.5399843623896986  0.4133165182491992  0.6681402842040837
  0.5692142337972236  0.1833281611398532  0.2958397703544530
  0.9387335305888110  0.9120967454161411  0.2440846713994368
  0.7051724526185496  0.7556603101472765  0.3420089884934865
  0.3012298729336366  0.4906358369482297  0.7358484248460722
  0.4513484233338763  0.7418554605846032  0.3385106484528094
  0.8742950493528555  0.0247052804995080  0.4881399813533571
  0.5048418534920452  0.3361432884869259  0.4641887278048068
  0.4085271916817608  0.3672419920095085  0.7388751653839862
  0.5363421596938380  0.6643628781235995  0.5700782864814623
  0.8769143000228482  0.3394390559094312  0.2155225672671419
  0.4384714180140447  0.0874944015871928  0.2414872628584073
  0.4642756178096196  0.9065504975003149  0.7852595202170146
  0.9195408083892741  0.7803051163641812  0.6516347699695445
  0.8575183406139057  0.6766947250219895  0.7952971573461483
  0.9514593541991643  0.2419154708320106  0.3715744673547851
  0.8332063145726269  0.2637264133175962  0.7703959541918606
  0.5629739038361558  0.0184092607936249  0.3835899123413347
  0.7079356123963945  0.8145144929636211  0.5980429505892144
  0.1591957241909448  0.6036422612497806  0.7090855779403741
  0.7940233736461795  0.0687031995876494  0.7105702808711430
  0.5860534039120172  0.8030626912885985  0.2054380241483171
  0.4752087708790380  0.9286871011394143  0.2839064672483720
  0.3015904507070089  0.6558546967813698  0.7365477275787463
  0.4678657938236206  0.0873667072462615  0.7726984420438733
  0.3437823232324165  0.8607751294155493  0.2688743608367302
  0.7402265988509353  0.1779152680539513  0.4976248070433972
  0.4326168992618780  0.4523883589143895  0.2365118987155032
  0.7078993386415076  0.9932120168725326  0.5212564819908425
  0.5842501393878337  0.8175177289258098  0.7374436928632868
  0.6862831817598802  0.0933470307805438  0.2741684772293169
  0.2138014328809912  0.1111130682744574  0.7803710372415795
  0.9381050421296478  0.0749381689039054  0.2819276751142976
  0.9407322140890023  0.5799520523769880  0.4200464097574655
  0.0868371205528402  0.8405356133775862  0.3276052203605893
  0.6632463984770857  0.4608091467582379  0.5327174940643028
  0.1773874022468592  0.4399242293271079  0.2440672333421310
  0.6191866993773546  0.5583586880096143  0.7385810768776062
  0.6796196990782377  0.6341655725431516  0.5274196220512454
  0.3084101520686946  0.1172399123049916  0.5667927543261244
  0.8205432988824977  0.6870427399458743  0.5185300943045457
  0.0152330825985407  0.6422953547053729  0.7716015493401097
  0.3832118089242555  0.6283343966309501  0.4742241291837428
  0.0028506074945967  0.8991485721565908  0.5265370306830049
  0.4682943856608998  0.1541264496568698  0.5087027199980841
  0.3239729296378987  0.8265692413308661  0.7865498756430960
  0.7096302888882241  0.4298078557550680  0.2686380780244086
  0.0775031423801692  0.1759594144149877  0.3955620951118838
  0.1805496526863480  0.2368513991202397  0.5797628378805944
  0.6205569398859031  0.0911234589330796  0.7916651885104068
  0.0075464098117866  0.5018386788156476  0.2117352750172521
  0.7213072698444839  0.6026246334558866  0.2367230875250596
  0.9729473552042728  0.3474476164670317  0.7890602124901365
  0.2591933775765511  0.2932839050660680  0.7672792631770072
  0.7977441111183373  0.3458232564297098  0.4557099308645501
  0.1553874088904411  0.8833804840939135  0.5331278942254648
  0.3083292439382966  0.3331978623138478  0.2333435286309523
  0.7194729525465903  0.6964652018996867  0.7761002814427516
  0.5137709139235440  0.5268050348114702  0.4332202266876097
  0.6992171954064530  0.2604394439759685  0.2920948118932168
  0.5627739023149612  0.9812530229621641  0.6496236157820069
  0.0549482540688496  0.3372711534894386  0.2166110859141018
  0.8711496663617011  0.1902230341528664  0.5615851748752270
  0.9440873521526143  0.4076974026076458  0.4245170945111163
  0.0184491700701724  0.2632780670311025  0.5943772129059426
  0.1868250100882733  0.2701500026221579  0.3224390867804987
  0.2939685715080995  0.7852212136708889  0.5314083742894389
  0.3357195844867888  0.0209187609438609  0.7701272450719724
  0.6111035498941907  0.1333421736797847  0.5496113614164374
  0.1639854054324308  0.7162050866199295  0.4390474770049602
  0.8182155255569199  0.8598622242514065  0.4596396892214221
  0.2055887673985833  0.7782007134112626  0.7047557532093754
  0.8197280108890431  0.8265078958157115  0.2112497378685869
  0.7911015031172978  0.5285714662475713  0.4430893861404184
  0.0586290695596210  0.8311662100392625  0.7587513340992351
  0.5829044500497564  0.5186008938167865  0.1964269799568004
  0.3770759403984734  0.4651372909244795  0.4910278667916929
  0.2877232831886106  0.6733953265764930  0.3171273121294018
  0.9246572840751897  0.9793082598482091  0.7145410928826318
  0.3246009855261237  0.0189963479964806  0.3492313308813297
  0.1133509968124108  0.5441330552776776  0.4697032176728289
  0.2054096822507705  0.9300158667354254  0.3083700581115513
  0.8139222388092248  0.0020629781982888  0.2526129700122897
  0.0573044816121905  0.0060721424145686  0.3587805248613164
  0.1763843191704933  0.0829265568334286  0.3206762143190963
  0.8531837784128605  0.4931991754480900  0.2088157552398711
  0.0208462236849548  0.4783563577301241  0.6506719284016259
  0.1502616194849073  0.3949158628340421  0.7086409478752225
  0.3074299587600330  0.5086711485199721  0.2919513338288749
  0.8837744095618839  0.6722495893165622  0.2176509991259783
  0.2812275206857627  0.9454978140887694  0.5793283361818917
  0.1524833560216340  0.0585343875370015  0.5573419489092409
  0.1890394780815270  0.7629601675018610  0.1955911946529421
  0.6415024459432360  0.3072466932475901  0.5317680642877960
  0.0170401678445887  0.0897522269874246  0.5584451503112562
  0.4368296051726305  0.8205805455249972  0.5429067845747587
  0.2483700709295142  0.5586904983784658  0.5112389061939502
  0.4461521136925178  0.2580126713426211  0.2383955996690069
 
  0.22842444E-02  0.12521152E-01 -0.61748779E-02
 -0.63232872E-02 -0.83836861E-02  0.89808876E-02
 -0.36446952E-02  0.32761889E-02  0.10198846E-01
  0.86387554E-02 -0.31697963E-02 -0.65924366E-02
 -0.14043431E-02  0.86441314E-02  0.70791270E-02
 -0.37748644E-02 -0.51603585E-02 -0.17218577E-01
  0.14839810E-01 -0.10058343E-02  0.31324667E-03
  0.10617576E-01 -0.37416239E-02  0.11046407E-01
 -0.15939501E-02  0.26023378E-02  0.10616736E-02
 -0.53690991E-02  0.54071071E-03  0.13773592E-01
 -0.10305899E-01  0.19292338E-02 -0.22923794E-02
 -0.37706864E-02  0.42223400E-02 -0.99775024E-02
  0.73329704E-03 -0.68914034E-04  0.37231570E-02
  0.86987153E-02  0.27440090E-02  0.41943334E-02
  0.13983770E-02  0.50028679E-03  0.94099218E-02
 -0.58530138E-03  0.44353636E-02 -0.30912127E-02
 -0.30721581E-02  0.94898152E-03  0.20205623E-02
  0.47989105E-02 -0.13381899E-02 -0.14126748E-01
  0.11802517E-01 -0.34433752E-02  0.47607904E-02
  0.23992755E-02  0.50412696E-02 -0.71698361E-02
 -0.48502224E-02 -0.49748464E-02 -0.80730642E-02
 -0.93190803E-02  0.25662008E-02  0.10948297E-01
  0.63314589E-03  0.68935527E-03  0.43446489E-02
  0.10577059E-01 -0.12966485E-02 -0.20429986E-03
 -0.24016680E-03  0.26547720E-02  0.93668069E-02
  0.54420186E-02 -0.11333706E-01 -0.21981744E-01
  0.82361772E-02 -0.27956437E-02  0.12861085E-02
  0.79744261E-02 -0.48733768E-02  0.33370517E-02
 -0.34138512E-02  0.73234786E-02  0.95695383E-02
  0.85251378E-02  0.51327735E-02 -0.70400874E-02
 -0.25852935E-02 -0.10298279E-01  0.61816862E-02
 -0.32110543E-02 -0.41525634E-02  0.14712983E-01
  0.79776210E-02  0.16253822E-02 -0.13097302E-01
  0.11760305E-01  0.12616378E-01  0.10249219E-01
  0.45393022E-02 -0.61960719E-04 -0.14477639E-01
  0.24419933E-02 -0.61660849E-02  0.16903400E-01
  0.57715811E-02  0.75944118E-02  0.43886890E-02
 -0.36404770E-03 -0.10113030E-01  0.12067879E-02
  0.36076697E-02 -0.16074509E-02 -0.41118647E-03
  0.31708260E-02 -0.79717784E-02  0.73103499E-02
  0.39510586E-02  0.90237434E-02  0.12502488E-01
 -0.24808330E-02  0.13952688E-02  0.13293195E-02
 -0.45971322E-02 -0.37860280E-02 -0.20698556E-02
 -0.69710832E-02 -0.16294308E-01  0.13462420E-01
 -0.91596485E-02 -0.10367806E-01 -0.75029614E-02
  0.15862928E-02  0.40865125E-02  0.62033369E-02
 -0.83122494E-03  0.48191613E-02 -0.71430279E-03
  0.44005145E-02 -0.69045592E-02 -0.12412355E-01
  0.15607891E-01  0.56918888E-02 -0.81229442E-02
  0.43028055E-02  0.61061345E-02  0.10858455E-02
  0.80216885E-02 -0.64284250E-02  0.91706940E-02
  0.70394642E-02 -0.42431313E-02  0.18143163E-02
  0.19789727E-02  0.28595547E-02  0.21115852E-01
 -0.56675033E-02  0.46267025E-02 -0.14317428E-01
  0.87940015E-02  0.44690036E-02 -0.22673822E-02
  0.89643489E-02 -0.99791056E-03 -0.11524203E-02
 -0.44128168E-02 -0.16210788E-02  0.87946594E-02
 -0.73590682E-02  0.87777051E-02  0.61855840E-02
 -0.10898097E-02 -0.62656823E-02 -0.90433337E-02
  0.38724900E-02 -0.10989476E-01 -0.12017682E-01
  0.38380917E-02 -0.11133033E-01 -0.26354097E-02
  0.75887811E-02  0.10629546E-02 -0.11875153E-01
 -0.76970965E-02 -0.37267408E-02  0.66123208E-03
 -0.58676514E-02 -0.41541464E-03  0.22463307E-02
 -0.46009065E-02  0.85841912E-02  0.60128752E-02
  0.23103846E-02  0.67022882E-02 -0.51099402E-02
  0.18881778E-02 -0.31546164E-02  0.40874878E-02
  0.68625999E-02  0.75472304E-02  0.43888153E-03
 -0.44884400E-02 -0.49592903E-02 -0.50911222E-02
  0.43245131E-03  0.12892471E-02  0.80048258E-02
 -0.18509073E-02  0.69557304E-04  0.12501160E-01
  0.97224716E-02  0.17095248E-02 -0.10275405E-01
 -0.81502858E-02  0.11579638E-01 -0.11358611E-01
  0.57233050E-02 -0.27025891E-02  0.11164789E-01
  0.85011637E-02 -0.86543439E-03 -0.35310764E-02
  0.11483918E-03  0.63762263E-03 -0.10391705E-01
 -0.54201579E-03  0.18608680E-02 -0.74594253E-02
 -0.66566332E-03 -0.19576951E-02 -0.56774967E-02
 -0.46404603E-02 -0.81618060E-02  0.58337311E-02
 -0.87437997E-03 -0.69987005E-02  0.71464054E-02
  0.12383894E-01 -0.34981251E-02 -0.66840323E-02
  0.44023179E-02 -0.41366747E-03  0.18111327E-02
  0.71933595E-03  0.40877849E-02  0.42787295E-02
  0.56062167E-02  0.98419348E-02 -0.10560109E-01
  0.79459497E-03 -0.77732491E-02  0.71671110E-03
 -0.15020338E-02 -0.14330956E-01  0.47710587E-02
 -0.73669190E-02 -0.15009399E-01 -0.72940564E-02
  0.45925678E-02  0.53832159E-02  0.36542960E-02
  0.51356024E-02  0.88970023E-02 -0.11556997E-01
  0.87890425E-02  0.16128913E-02 -0.48423381E-02
  0.30176021E-02  0.10341471E-03  0.14351326E-01
  0.27415071E-02 -0.13566398E-01  0.40949146E-02
 -0.99257695E-02  0.15871983E-02 -0.71093814E-02
  0.63267547E-02  0.52617844E-03 -0.41519217E-02
 -0.30359696E-02 -0.16187988E-03  0.15914017E-01
  0.14071828E-01 -0.54855488E-03  0.11264500E-04
  0.67418756E-03 -0.43450805E-02 -0.47433071E-02
  0.97679468E-03 -0.12751424E-01  0.92944480E-02
  0.40104422E-02 -0.36377641E-02  0.90862074E-02
  0.11521107E-01  0.84164585E-02  0.71750787E-02
 -0.82107211E-02  0.17791496E-02  0.41690852E-02
  0.16081169E-02  0.12092926E-01 -0.18096434E-02
 -0.43436014E-02 -0.87555366E-02  0.85076727E-03
 -0.53922267E-02 -0.13317631E-02  0.85901595E-02
 -0.46528337E-02  0.63660140E-04  0.75647591E-02
  0.37005627E-02  0.61011830E-02  0.30625497E-02
 -0.34933402E-02 -0.11537138E-01 -0.13535429E-01
 -0.32698886E-02 -0.13430797E-02 -0.41217099E-02
 -0.43376393E-02  0.10499498E-02 -0.96117238E-03
 -0.51553638E-02 -0.16466299E-02  0.71182221E-02
  0.14556465E-03 -0.65766041E-02 -0.40107915E-02
  0.24899231E-02  0.15499285E-02  0.43142342E-02
  0.11964859E-01 -0.50908149E-02 -0.31697440E-02
 -0.49989072E-02 -0.15081047E-02  0.26882858E-02
  0.73857593E-02 -0.68542788E-03 -0.99632339E-03
 -0.33283300E-02 -0.94666084E-02  0.41235400E-02
  0.39123608E-02  0.26778645E-02 -0.15354400E-02
 -0.25209413E-02  0.82749062E-03  0.70856879E-02
 -0.13954160E-02 -0.51172304E-02 -0.17261678E-01
 -0.66432763E-02 -0.34278040E-03  0.60168329E-02
  0.63272364E-02  0.78681963E-02 -0.51553319E-02
  0.53852518E-02  0.66722216E-02 -0.64234591E-02
  0.27815825E-02 -0.46089958E-02  0.92282329E-02
 -0.16601164E-01 -0.43748024E-02  0.42640291E-02
 -0.81648742E-02 -0.42151273E-02  0.49538594E-02
 -0.38931691E-03  0.41155801E-02  0.24926864E-03
  0.54992229E-02 -0.58322517E-02  0.55795199E-02
  0.30569047E-02 -0.41409200E-02 -0.50505748E-02
  0.25461795E-02  0.47334761E-02 -0.10647588E-01
  0.53917423E-02 -0.83304153E-02 -0.45873484E-02
  0.22058656E-03  0.52523691E-03 -0.30656430E-02
  0.58575973E-02 -0.32686660E-02  0.36872612E-02
  0.57628445E-02  0.82462524E-02 -0.91964914E-02
  0.42459381E-02 -0.44359446E-02  0.10133743E-02
  0.73970495E-02  0.10083474E-01  0.52570107E-02
 -0.50904250E-02  0.39704082E-02  0.82936347E-02
  0.81007554E-02  0.24444786E-02 -0.32328875E-02
  0.44155028E-03  0.16645502E-01 -0.45928788E-03
 -0.72050496E-02 -0.74011014E-02  0.82711676E-02
  0.21616541E-02  0.15592523E-02 -0.31860235E-02
  0.10954888E-02 -0.54642680E-02  0.20439237E-02
  0.43186257E-02  0.69895670E-02 -0.66120230E-03
  0.10615188E-02  0.80159173E-02  0.61727891E-02
  0.10742261E-01  0.42613231E-02 -0.81305346E-02
  0.17712353E-02 -0.49043974E-02  0.44335725E-02
  0.12334190E-01  0.14362181E-02 -0.21442512E-02
  0.27691085E-02  0.28711173E-02 -0.10610570E-01
 -0.39932767E-02  0.28508957E-02  0.42493658E-02
 -0.17072636E-01 -0.43796623E-03  0.12140918E-01
  0.23744720E-02  0.31442840E-02 -0.10569293E-01
 -0.56947438E-02 -0.13698649E-02 -0.40806514E-02
  0.38122129E-02 -0.45769630E-02 -0.15943463E-01
  0.31256747E-02  0.35790661E-03 -0.88601384E-03
 -0.15935721E-01 -0.63531091E-02  0.18143034E-02
 -0.34888164E-02 -0.56444321E-02  0.25775355E-03
  0.36486546E-03  0.29562753E-02  0.16260658E-02
  0.76025295E-02  0.79737296E-02 -0.54180611E-03
 -0.18623307E-02 -0.18551519E-02 -0.25263375E-02
 -0.82113932E-02  0.15790693E-02 -0.14043410E-02
  0.16381858E-03 -0.48871046E-02  0.48169232E-02
 -0.38713261E-02 -0.28781743E-02  0.10790103E-01
 -0.53274163E-02 -0.52300580E-02 -0.31626009E-02
  0.62977262E-02  0.94499758E-02  0.15923747E-02
 -0.64849684E-02 -0.15314613E-02  0.57419077E-02
 -0.88364139E-02 -0.30247852E-02  0.21919587E-02
 -0.73049805E-02  0.16761800E-04  0.10305366E-02
  0.53003371E-02 -0.26408507E-02  0.39149898E-02
  0.10746731E-01 -0.82866293E-04  0.52301419E-02
 -0.20390213E-02  0.61483193E-02  0.91173459E-02
  0.19966901E-02  0.77871425E-02  0.11182555E-03
 -0.22471696E-02  0.16152714E-02 -0.69345264E-02
 -0.13474931E-01  0.56050979E-02  0.12388285E-02
 -0.73634485E-02 -0.18190721E-01 -0.54387796E-02
  0.26186714E-02 -0.54117570E-02 -0.62763017E-02
 -0.43629682E-02 -0.72796880E-02 -0.45137983E-02
 -0.27945759E-03  0.11121855E-01  0.17598091E-02
  0.56618321E-02  0.24359397E-03 -0.57439472E-02
 -0.12178506E-02  0.29941940E-02 -0.15398688E-02
  0.69567313E-02  0.10196385E-02 -0.24095172E-02
 -0.25599911E-02  0.14447780E-02  0.68811516E-02
  0.55016874E-02 -0.44116288E-02 -0.20229876E-03
  0.38328841E-02  0.50929028E-02 -0.39890774E-03
  0.48884230E-02  0.59032342E-02  0.83271070E-02
  0.50564661E-02 -0.64751919E-02 -0.14214230E-02
 -0.98469849E-02 -0.65096635E-02  0.44128257E-02
 -0.23930905E-02  0.10112413E-01  0.17002876E-02
 -0.97193830E-02 -0.35807098E-02 -0.11586926E-02
 -0.38212164E-02  0.37276653E-02 -0.16617335E-01
  0.25676476E-02 -0.81041776E-02 -0.31747014E-02
 -0.90413781E-02  0.10367208E-01  0.21920463E-03
 -0.24358620E-02  0.12435571E-02 -0.36789194E-02
  0.28985926E-02  0.19101629E-02  0.66794906E-02
 -0.54569932E-02  0.29391702E-02  0.10299641E-02
 -0.31250414E-03  0.42209715E-02 -0.43759742E-02
 -0.31383135E-02  0.49143336E-02  0.10480220E-01
  0.60393402E-02  0.20719490E-02  0.91121625E-02
 -0.39640292E-02  0.51774341E-02 -0.32904961E-02
  0.85494457E-02  0.22954999E-02 -0.26429409E-03
 -0.52345559E-02 -0.20873738E-02  0.54637530E-02
 -0.10495637E-01 -0.37547867E-03  0.10636224E-03
 -0.91785509E-04 -0.58390282E-03 -0.12596589E-02
  0.57018599E-02 -0.89460307E-02  0.11778157E-01
 -0.42838832E-02 -0.62728140E-02  0.93446674E-02
  0.72152669E-03  0.27617712E-02 -0.94859855E-02
 -0.93715786E-02  0.23468648E-02  0.55472899E-02
  0.13706207E-03 -0.48493364E-03 -0.82538898E-02
 -0.32265050E-02  0.50421360E-02 -0.17124638E-01
  0.18172880E-03  0.37960263E-02  0.40491452E-02
 -0.10054641E-01 -0.11690783E-02  0.34600898E-03
 -0.91961722E-03 -0.36023091E-02  0.57969513E-02
 -0.48297023E-02 -0.52365598E-02 -0.70315542E-02
 -0.37065807E-03  0.25746575E-02 -0.53308138E-02
 -0.80102960E-02  0.30859425E-02 -0.73643283E-02
 -0.72995986E-02  0.10628984E-01 -0.31931973E-02
  0.82878568E-02 -0.77238628E-02 -0.95107915E-02
 -0.38317269E-02  0.67566650E-02  0.10984094E-01
 -0.10033618E-01 -0.39521996E-03  0.67153474E-02
  0.13915563E-01  0.37277179E-02 -0.56235951E-02
 -0.27347187E-02 -0.23303518E-02 -0.25268606E-02
  0.77126582E-02  0.69477683E-02 -0.49784231E-02
 -0.17460214E-02 -0.58107572E-02  0.16280882E-02
 -0.11385249E-01  0.88590317E-04 -0.76384355E-02
  0.12248054E-02 -0.11966585E-02 -0.83688989E-02
  0.23635154E-02  0.34519105E-03 -0.73618493E-02
 
           1
  0.547311962346887     
  0.10176193E+01 -0.62486426E-03 -0.26938128E-04  0.00000000E+00
  0.98084319E+00  0.11203106E-02  0.43257372E-01
  0.98624419E+00  0.15884967E+00  0.19903725E-01
  0.98338132E+00  0.32759672E+00  0.24786896E-01
  0.98290324E+00  0.49797651E+00  0.96783155E+00
  0.98723079E+00  0.66447673E+00  0.99494933E+00
  0.98518575E+00  0.82706362E+00  0.16042504E-01
  0.10845897E+00  0.79806026E-01  0.42168493E-01
  0.11141938E+00  0.24185532E+00  0.55390273E-01
  0.10903875E+00  0.40257070E+00  0.68281875E-03
  0.11046270E+00  0.57119199E+00  0.97403540E+00
  0.10834998E+00  0.74602368E+00  0.95666535E+00
  0.10282257E+00  0.91680356E+00  0.99633542E+00
  0.23213261E+00  0.99000653E+00  0.64111637E-01
  0.23159366E+00  0.16198580E+00  0.38144941E-01
  0.24074650E+00  0.32736629E+00  0.21814214E-01
  0.23683203E+00  0.49096495E+00  0.99124700E+00
  0.23358537E+00  0.65879901E+00  0.94062779E+00
  0.22888495E+00  0.82393300E+00  0.99426861E+00
  0.35855959E+00  0.79746983E-01  0.69178656E-01
  0.36067638E+00  0.24527943E+00  0.45288531E-01
  0.36080116E+00  0.40386655E+00  0.97352202E+00
  0.35999189E+00  0.56897570E+00  0.93070366E+00
  0.35985668E+00  0.73757487E+00  0.99460814E+00
  0.35836544E+00  0.90648131E+00  0.34145834E-01
  0.48126275E+00  0.99211296E+00  0.61532908E-01
  0.48848682E+00  0.16674397E+00  0.20744646E-01
  0.48588944E+00  0.33288274E+00  0.98868110E+00
  0.48468840E+00  0.49090710E+00  0.97695368E+00
  0.48253246E+00  0.66237160E+00  0.92252683E+00
  0.48674334E+00  0.82626771E+00  0.36621066E-03
  0.60458337E+00  0.81046867E-01  0.50001511E-01
  0.61325945E+00  0.25274051E+00  0.18069811E-01
  0.61344654E+00  0.41487087E+00  0.96056497E+00
  0.60965698E+00  0.58066273E+00  0.93519380E+00
  0.61378051E+00  0.74854789E+00  0.95032756E+00
  0.61037964E+00  0.91892024E+00  0.18694584E-01
  0.73492580E+00  0.40919832E-02  0.10286743E-01
  0.73408939E+00  0.16489356E+00  0.26205593E-01
  0.73532404E+00  0.32929933E+00  0.97576130E+00
  0.73326059E+00  0.50188117E+00  0.93801864E+00
  0.73563811E+00  0.66910294E+00  0.97918050E+00
  0.73880363E+00  0.83544707E+00  0.97797852E-02
  0.85614046E+00  0.75247470E-01  0.61047341E-01
  0.86349912E+00  0.25012115E+00  0.47484236E-01
  0.85850201E+00  0.40674125E+00  0.95075723E+00
  0.85665929E+00  0.57318703E+00  0.98558658E+00
  0.86161714E+00  0.73947638E+00  0.33042473E-01
  0.86075740E+00  0.90492226E+00  0.51260117E-01
  0.65171012E-01  0.67687375E-03  0.22318906E-01
  0.66271852E-01  0.16076208E+00  0.65159770E-01
  0.70367390E-01  0.31193596E+00  0.98408032E+00
  0.67482154E-01  0.48887308E+00  0.97003971E+00
  0.66822531E-01  0.65865455E+00  0.97995122E+00
  0.64320600E-01  0.82980905E+00  0.97876047E+00
  0.19311124E+00  0.77535742E-01  0.34866562E-01
  0.19732927E+00  0.24483755E+00  0.59313691E-01
  0.19594244E+00  0.40798819E+00  0.15747894E-01
  0.19605987E+00  0.57361078E+00  0.95897489E+00
  0.18774420E+00  0.73939338E+00  0.99189480E+00
  0.18917151E+00  0.91012300E+00  0.66244263E-02
  0.31709041E+00  0.99143009E+00  0.40629942E-01
  0.31557969E+00  0.16234774E+00  0.46770370E-01
  0.32428953E+00  0.33352767E+00  0.51070308E-01
  0.31789762E+00  0.48714415E+00  0.95686292E+00
  0.31891455E+00  0.65369382E+00  0.94967504E+00
  0.31109861E+00  0.82131105E+00  0.99972996E+00
  0.44714468E+00  0.85246177E-01  0.32705621E-01
  0.44920765E+00  0.24902957E+00  0.21480689E-01
  0.44314086E+00  0.40712457E+00  0.95043230E+00
  0.44281633E+00  0.57137228E+00  0.94357598E+00
  0.44283109E+00  0.74481268E+00  0.98126504E+00
  0.44427445E+00  0.90718588E+00  0.32084340E-02
  0.56503970E+00  0.99982644E+00  0.57904582E-01
  0.56919956E+00  0.16831610E+00  0.38130074E-01
  0.57087466E+00  0.33326225E+00  0.97849172E+00
  0.57142432E+00  0.49715097E+00  0.97247276E+00
  0.56581729E+00  0.66639923E+00  0.95866077E+00
  0.57252392E+00  0.83507868E+00  0.99142166E+00
  0.68816602E+00  0.79292728E-01  0.36040471E-01
  0.69618301E+00  0.24960896E+00  0.19244876E-01
  0.69425823E+00  0.41392037E+00  0.96095616E+00
  0.69438893E+00  0.58432498E+00  0.96348592E+00
  0.69823620E+00  0.75310934E+00  0.99094397E+00
  0.69545163E+00  0.91893094E+00  0.19967558E-02
  0.81748800E+00  0.99458915E+00  0.25610397E-01
  0.81877237E+00  0.16448054E+00  0.46210621E-01
  0.81833501E+00  0.32151887E+00  0.97484120E+00
  0.81697354E+00  0.49682463E+00  0.93479423E+00
  0.81706087E+00  0.65962443E+00  0.99550960E+00
  0.82323302E+00  0.82637595E+00  0.97892965E+00
  0.94111023E+00  0.83582638E-01  0.53383536E-01
  0.94348692E+00  0.24291913E+00  0.10793886E-01
  0.94365552E+00  0.40849526E+00  0.96103552E+00
  0.94034938E+00  0.57987252E+00  0.96564815E+00
  0.94615936E+00  0.74477798E+00  0.83272883E-02
  0.94580986E+00  0.91138668E+00  0.39920881E-01
  0.65181739E-01  0.11064902E-01  0.76589973E+00
  0.85395572E-01  0.37357350E+00  0.43953711E+00
  0.55391923E+00  0.25056433E+00  0.79223352E+00
  0.68736888E+00  0.91857068E+00  0.29918071E+00