 B  N Al 
 1.0000000000000000
    20.0320000000000000    0.0000000000000000    0.0000000000000000
    10.0160000000000000   17.3482208886098732    0.0000000000000000
     0.0000000000000000    0.0000000000000000   30.0000000499999970
 B  N  Al 
  64  64 147
Selective Dynamics
Cartesian
  0.0000000000000000  1.4456850740508227 10.0000000000000000  T T T 
  2.5040000000000004  1.4456850740508227 10.0000000000000000  T T T 
  5.0080000000000009  1.4456850740508227 10.0000000000000000  T T T 
  7.5120000000000005  1.4456850740508227 10.0000000000000000  T T T 
 10.0160000000000000  1.4456850740508227 10.0000000000000000  T T T 
 12.5200000000000014  1.4456850740508227 10.0000000000000000  T T T 
 15.0240000000000009  1.4456850740508227 10.0000000000000000  T T T 
 17.5280000000000022  1.4456850740508227 10.0000000000000000  T T T 
  1.2519999999999998  3.6142126851270566 10.0000000000000000  T T T 
  3.7560000000000002  3.6142126851270566 10.0000000000000000  T T T 
  6.2599999999999998  3.6142126851270566 10.0000000000000000  T T T 
  8.7639999999999993  3.6142126851270566 10.0000000000000000  T T T 
 11.2679999999999989  3.6142126851270566 10.0000000000000000  T T T 
 13.7720000000000002  3.6142126851270566 10.0000000000000000  T T T 
 16.2759999999999998  3.6142126851270566 10.0000000000000000  T T T 
 18.7800000000000011  3.6142126851270566 10.0000000000000000  T T T 
  2.5040000000000000  5.7827402962032908 10.0000000000000000  T T T 
  5.0080000000000000  5.7827402962032908 10.0000000000000000  T T T 
  7.5120000000000005  5.7827402962032908 10.0000000000000000  T T T 
 10.0160000000000000  5.7827402962032908 10.0000000000000000  T T T 
 12.5199999999999996  5.7827402962032908 10.0000000000000000  T T T 
 15.0240000000000009  5.7827402962032908 10.0000000000000000  T T T 
 17.5279999999999987  5.7827402962032908 10.0000000000000000  T T T 
 20.0320000000000036  5.7827402962032908 10.0000000000000000  T T T 
  3.7559999999999998  7.9512679072795249 10.0000000000000000  T T T 
  6.2599999999999998  7.9512679072795249 10.0000000000000000  T T T 
  8.7639999999999993  7.9512679072795249 10.0000000000000000  T T T 
 11.2680000000000007  7.9512679072795249 10.0000000000000000  T T T 
 13.7719999999999985  7.9512679072795249 10.0000000000000000  T T T 
 16.2759999999999998  7.9512679072795249 10.0000000000000000  T T T 
 18.7800000000000011  7.9512679072795249 10.0000000000000000  T T T 
 21.2840000000000025  7.9512679072795249 10.0000000000000000  T T T 
  5.0080000000000009 10.1197955183557600 10.0000000000000000  T T T 
  7.5120000000000005 10.1197955183557600 10.0000000000000000  T T T 
 10.0160000000000018 10.1197955183557600 10.0000000000000000  T T T 
 12.5199999999999996 10.1197955183557600 10.0000000000000000  T T T 
 15.0240000000000009 10.1197955183557600 10.0000000000000000  T T T 
 17.5280000000000022 10.1197955183557600 10.0000000000000000  T T T 
 20.0320000000000000 10.1197955183557600 10.0000000000000000  T T T 
 22.5360000000000014 10.1197955183557600 10.0000000000000000  T T T 
  6.2599999999999998 12.2883231294319941 10.0000000000000000  T T T 
  8.7640000000000011 12.2883231294319941 10.0000000000000000  T T T 
 11.2680000000000007 12.2883231294319941 10.0000000000000000  T T T 
 13.7720000000000002 12.2883231294319941 10.0000000000000000  T T T 
 16.2759999999999998 12.2883231294319941 10.0000000000000000  T T T 
 18.7800000000000011 12.2883231294319941 10.0000000000000000  T T T 
 21.2839999999999989 12.2883231294319941 10.0000000000000000  T T T 
 23.7880000000000038 12.2883231294319941 10.0000000000000000  T T T 
  7.5120000000000005 14.4568507405082283 10.0000000000000000  T T T 
 10.0160000000000018 14.4568507405082283 10.0000000000000000  T T T 
 12.5200000000000014 14.4568507405082283 10.0000000000000000  T T T 
 15.0240000000000009 14.4568507405082283 10.0000000000000000  T T T 
 17.5279999999999987 14.4568507405082283 10.0000000000000000  T T T 
 20.0320000000000036 14.4568507405082283 10.0000000000000000  T T T 
 22.5360000000000014 14.4568507405082283 10.0000000000000000  T T T 
 25.0400000000000027 14.4568507405082283 10.0000000000000000  T T T 
  8.7639999999999993 16.6253783515844624 10.0000000000000000  T T T 
 11.2680000000000007 16.6253783515844624 10.0000000000000000  T T T 
 13.7720000000000002 16.6253783515844624 10.0000000000000000  T T T 
 16.2759999999999998 16.6253783515844624 10.0000000000000000  T T T 
 18.7800000000000011 16.6253783515844624 10.0000000000000000  T T T 
 21.2839999999999989 16.6253783515844624 10.0000000000000000  T T T 
 23.7880000000000003 16.6253783515844624 10.0000000000000000  T T T 
 26.2920000000000016 16.6253783515844624 10.0000000000000000  T T T 
  0.0000000000000000  0.0000000000000000 10.0000000500000006  T T T 
  2.5040000000000000  0.0000000000000000 10.0000000500000006  T T T 
  5.0080000000000000  0.0000000000000000 10.0000000500000006  T T T 
  7.5120000000000005  0.0000000000000000 10.0000000500000006  T T T 
 10.0160000000000000  0.0000000000000000 10.0000000500000006  T T T 
 12.5199999999999996  0.0000000000000000 10.0000000500000006  T T T 
 15.0240000000000009  0.0000000000000000 10.0000000500000006  T T T 
 17.5279999999999987  0.0000000000000000 10.0000000500000006  T T T 
  1.2520000000000000  2.1685276110762342 10.0000000500000006  T T T 
  3.7560000000000002  2.1685276110762342 10.0000000500000006  T T T 
  6.2599999999999998  2.1685276110762342 10.0000000500000006  T T T 
  8.7640000000000011  2.1685276110762342 10.0000000500000006  T T T 
 11.2680000000000007  2.1685276110762342 10.0000000500000006  T T T 
 13.7720000000000002  2.1685276110762342 10.0000000500000006  T T T 
 16.2759999999999998  2.1685276110762342 10.0000000500000006  T T T 
 18.7799999999999976  2.1685276110762342 10.0000000500000006  T T T 
  2.5040000000000000  4.3370552221524683 10.0000000500000006  T T T 
  5.0080000000000000  4.3370552221524683 10.0000000500000006  T T T 
  7.5120000000000005  4.3370552221524683 10.0000000500000006  T T T 
 10.0160000000000000  4.3370552221524683 10.0000000500000006  T T T 
 12.5199999999999996  4.3370552221524683 10.0000000500000006  T T T 
 15.0239999999999991  4.3370552221524683 10.0000000500000006  T T T 
 17.5280000000000022  4.3370552221524683 10.0000000500000006  T T T 
 20.0320000000000000  4.3370552221524683 10.0000000500000006  T T T 
  3.7560000000000002  6.5055828332287025 10.0000000500000006  T T T 
  6.2599999999999998  6.5055828332287025 10.0000000500000006  T T T 
  8.7639999999999993  6.5055828332287025 10.0000000500000006  T T T 
 11.2680000000000007  6.5055828332287025 10.0000000500000006  T T T 
 13.7720000000000002  6.5055828332287025 10.0000000500000006  T T T 
 16.2759999999999998  6.5055828332287025 10.0000000500000006  T T T 
 18.7800000000000011  6.5055828332287025 10.0000000500000006  T T T 
 21.2839999999999989  6.5055828332287025 10.0000000500000006  T T T 
  5.0080000000000000  8.6741104443049366 10.0000000500000006  T T T 
  7.5120000000000005  8.6741104443049366 10.0000000500000006  T T T 
 10.0160000000000000  8.6741104443049366 10.0000000500000006  T T T 
 12.5199999999999996  8.6741104443049366 10.0000000500000006  T T T 
 15.0240000000000009  8.6741104443049366 10.0000000500000006  T T T 
 17.5279999999999987  8.6741104443049366 10.0000000500000006  T T T 
 20.0320000000000000  8.6741104443049366 10.0000000500000006  T T T 
 22.5359999999999978  8.6741104443049366 10.0000000500000006  T T T 
  6.2599999999999998 10.8426380553811708 10.0000000500000006  T T T 
  8.7639999999999993 10.8426380553811708 10.0000000500000006  T T T 
 11.2680000000000007 10.8426380553811708 10.0000000500000006  T T T 
 13.7720000000000002 10.8426380553811708 10.0000000500000006  T T T 
 16.2759999999999998 10.8426380553811708 10.0000000500000006  T T T 
 18.7800000000000011 10.8426380553811708 10.0000000500000006  T T T 
 21.2839999999999989 10.8426380553811708 10.0000000500000006  T T T 
 23.7879999999999967 10.8426380553811708 10.0000000500000006  T T T 
  7.5120000000000005 13.0111656664574049 10.0000000500000006  T T T 
 10.0160000000000000 13.0111656664574049 10.0000000500000006  T T T 
 12.5199999999999996 13.0111656664574049 10.0000000500000006  T T T 
 15.0240000000000009 13.0111656664574049 10.0000000500000006  T T T 
 17.5279999999999987 13.0111656664574049 10.0000000500000006  T T T 
 20.0320000000000000 13.0111656664574049 10.0000000500000006  T T T 
 22.5360000000000014 13.0111656664574049 10.0000000500000006  T T T 
 25.0399999999999991 13.0111656664574049 10.0000000500000006  T T T 
  8.7639999999999993 15.1796932775336391 10.0000000500000006  T T T 
 11.2679999999999989 15.1796932775336391 10.0000000500000006  T T T 
 13.7719999999999985 15.1796932775336391 10.0000000500000006  T T T 
 16.2759999999999998 15.1796932775336391 10.0000000500000006  T T T 
 18.7800000000000011 15.1796932775336391 10.0000000500000006  T T T 
 21.2839999999999989 15.1796932775336391 10.0000000500000006  T T T 
 23.7880000000000003 15.1796932775336391 10.0000000500000006  T T T 
 26.2919999999999980 15.1796932775336391 10.0000000500000006  T T T 
  1.4318912319027588  0.8267027881893224  0.0000000000000000  F F F 
  4.2956736957082766  0.8267027881893224  0.0000000000000000  F F F 
  7.1594561595137947  0.8267027881893224  0.0000000000000000  F F F 
 10.0232386233193118  0.8267027881893224  0.0000000000000000  F F F 
 12.8870210871248290  0.8267027881893224  0.0000000000000000  F F F 
 15.7508035509303461  0.8267027881893224  0.0000000000000000  F F F 
 18.6145860147358668  0.8267027881893224  0.0000000000000000  F F F 
  2.8637824638055176  3.3068111527572897  0.0000000000000000  F F F 
  5.7275649276110352  3.3068111527572897  0.0000000000000000  F F F 
  8.5913473914165532  3.3068111527572897  0.0000000000000000  F F F 
 11.4551298552220704  3.3068111527572897  0.0000000000000000  F F F 
 14.3189123190275875  3.3068111527572897  0.0000000000000000  F F F 
 17.1826947828331065  3.3068111527572897  0.0000000000000000  F F F 
 20.0464772466386236  3.3068111527572897  0.0000000000000000  F F F 
  4.2956736957082766  5.7869195173252574  0.0000000000000000  F F F 
  7.1594561595137947  5.7869195173252574  0.0000000000000000  F F F 
 10.0232386233193118  5.7869195173252574  0.0000000000000000  F F F 
 12.8870210871248290  5.7869195173252574  0.0000000000000000  F F F 
 15.7508035509303461  5.7869195173252574  0.0000000000000000  F F F 
 18.6145860147358633  5.7869195173252574  0.0000000000000000  F F F 
 21.4783684785413840  5.7869195173252574  0.0000000000000000  F F F 
  5.7275649276110352  8.2670278818932257  0.0000000000000000  F F F 
  8.5913473914165532  8.2670278818932257  0.0000000000000000  F F F 
 11.4551298552220722  8.2670278818932257  0.0000000000000000  F F F 
 14.3189123190275893  8.2670278818932257  0.0000000000000000  F F F 
 17.1826947828331065  8.2670278818932257  0.0000000000000000  F F F 
 20.0464772466386236  8.2670278818932257  0.0000000000000000  F F F 
 22.9102597104441408  8.2670278818932257  0.0000000000000000  F F F 
  7.1594561595137938 10.7471362464611904  0.0000000000000000  F F F 
 10.0232386233193118 10.7471362464611904  0.0000000000000000  F F F 
 12.8870210871248290 10.7471362464611904  0.0000000000000000  F F F 
 15.7508035509303461 10.7471362464611904  0.0000000000000000  F F F 
 18.6145860147358633 10.7471362464611904  0.0000000000000000  F F F 
 21.4783684785413804 10.7471362464611904  0.0000000000000000  F F F 
 24.3421509423469011 10.7471362464611904  0.0000000000000000  F F F 
  8.5913473914165532 13.2272446110291586  0.0000000000000000  F F F 
 11.4551298552220704 13.2272446110291586  0.0000000000000000  F F F 
 14.3189123190275893 13.2272446110291586  0.0000000000000000  F F F 
 17.1826947828331065 13.2272446110291586  0.0000000000000000  F F F 
 20.0464772466386236 13.2272446110291586  0.0000000000000000  F F F 
 22.9102597104441408 13.2272446110291586  0.0000000000000000  F F F 
 25.7740421742496579 13.2272446110291586  0.0000000000000000  F F F 
 10.0232386233193118 15.7073529755971251  0.0000000000000000  F F F 
 12.8870210871248290 15.7073529755971251  0.0000000000000000  F F F 
 15.7508035509303479 15.7073529755971251  0.0000000000000000  F F F 
 18.6145860147358633 15.7073529755971251  0.0000000000000000  F F F 
 21.4783684785413840 15.7073529755971251  0.0000000000000000  F F F 
 24.3421509423468976 15.7073529755971251  0.0000000000000000  F F F 
 27.2059334061524183 15.7073529755971251  0.0000000000000000  F F F 
  0.0000000000000000  1.6534055763786448  2.3382685902179841  T T T 
  2.8637824638055176  1.6534055763786448  2.3382685902179841  T T T 
  5.7275649276110352  1.6534055763786448  2.3382685902179841  T T T 
  8.5913473914165532  1.6534055763786448  2.3382685902179841  T T T 
 11.4551298552220704  1.6534055763786448  2.3382685902179841  T T T 
 14.3189123190275893  1.6534055763786448  2.3382685902179841  T T T 
 17.1826947828331065  1.6534055763786448  2.3382685902179841  T T T 
  1.4318912319027586  4.1335139409466120  2.3382685902179841  T T T 
  4.2956736957082757  4.1335139409466120  2.3382685902179841  T T T 
  7.1594561595137938  4.1335139409466120  2.3382685902179841  T T T 
 10.0232386233193118  4.1335139409466120  2.3382685902179841  T T T 
 12.8870210871248290  4.1335139409466120  2.3382685902179841  T T T 
 15.7508035509303479  4.1335139409466120  2.3382685902179841  T T T 
 18.6145860147358633  4.1335139409466120  2.3382685902179841  T T T 
  2.8637824638055176  6.6136223055145793  2.3382685902179841  T T T 
  5.7275649276110352  6.6136223055145793  2.3382685902179841  T T T 
  8.5913473914165532  6.6136223055145793  2.3382685902179841  T T T 
 11.4551298552220704  6.6136223055145793  2.3382685902179841  T T T 
 14.3189123190275875  6.6136223055145793  2.3382685902179841  T T T 
 17.1826947828331065  6.6136223055145793  2.3382685902179841  T T T 
 20.0464772466386236  6.6136223055145793  2.3382685902179841  T T T 
  4.2956736957082766  9.0937306700825467  2.3382685902179841  T T T 
  7.1594561595137947  9.0937306700825467  2.3382685902179841  T T T 
 10.0232386233193118  9.0937306700825467  2.3382685902179841  T T T 
 12.8870210871248290  9.0937306700825467  2.3382685902179841  T T T 
 15.7508035509303461  9.0937306700825467  2.3382685902179841  T T T 
 18.6145860147358668  9.0937306700825467  2.3382685902179841  T T T 
 21.4783684785413840  9.0937306700825467  2.3382685902179841  T T T 
  5.7275649276110361 11.5738390346505149  2.3382685902179841  T T T 
  8.5913473914165532 11.5738390346505149  2.3382685902179841  T T T 
 11.4551298552220722 11.5738390346505149  2.3382685902179841  T T T 
 14.3189123190275893 11.5738390346505149  2.3382685902179841  T T T 
 17.1826947828331065 11.5738390346505149  2.3382685902179841  T T T 
 20.0464772466386236 11.5738390346505149  2.3382685902179841  T T T 
 22.9102597104441443 11.5738390346505149  2.3382685902179841  T T T 
  7.1594561595137947 14.0539473992184831  2.3382685902179841  T T T 
 10.0232386233193118 14.0539473992184831  2.3382685902179841  T T T 
 12.8870210871248290 14.0539473992184831  2.3382685902179841  T T T 
 15.7508035509303461 14.0539473992184831  2.3382685902179841  T T T 
 18.6145860147358633 14.0539473992184831  2.3382685902179841  T T T 
 21.4783684785413840 14.0539473992184831  2.3382685902179841  T T T 
 24.3421509423469011 14.0539473992184831  2.3382685902179841  T T T 
  8.5913473914165532 16.5340557637864514  2.3382685902179841  T T T 
 11.4551298552220704 16.5340557637864514  2.3382685902179841  T T T 
 14.3189123190275893 16.5340557637864514  2.3382685902179841  T T T 
 17.1826947828331065 16.5340557637864514  2.3382685902179841  T T T 
 20.0464772466386236 16.5340557637864514  2.3382685902179841  T T T 
 22.9102597104441443 16.5340557637864514  2.3382685902179841  T T T 
 25.7740421742496579 16.5340557637864514  2.3382685902179841  T T T 
  0.0000000000000000  0.0000000000000000  4.6765371804359681  T T T 
  2.8637824638055176  0.0000000000000000  4.6765371804359681  T T T 
  5.7275649276110352  0.0000000000000000  4.6765371804359681  T T T 
  8.5913473914165532  0.0000000000000000  4.6765371804359681  T T T 
 11.4551298552220704  0.0000000000000000  4.6765371804359681  T T T 
 14.3189123190275875  0.0000000000000000  4.6765371804359681  T T T 
 17.1826947828331065  0.0000000000000000  4.6765371804359681  T T T 
  1.4318912319027588  2.4801083645679673  4.6765371804359681  T T T 
  4.2956736957082766  2.4801083645679673  4.6765371804359681  T T T 
  7.1594561595137938  2.4801083645679673  4.6765371804359681  T T T 
 10.0232386233193118  2.4801083645679673  4.6765371804359681  T T T 
 12.8870210871248290  2.4801083645679673  4.6765371804359681  T T T 
 15.7508035509303461  2.4801083645679673  4.6765371804359681  T T T 
 18.6145860147358668  2.4801083645679673  4.6765371804359681  T T T 
  2.8637824638055176  4.9602167291359347  4.6765371804359681  T T T 
  5.7275649276110352  4.9602167291359347  4.6765371804359681  T T T 
  8.5913473914165532  4.9602167291359347  4.6765371804359681  T T T 
 11.4551298552220704  4.9602167291359347  4.6765371804359681  T T T 
 14.3189123190275875  4.9602167291359347  4.6765371804359681  T T T 
 17.1826947828331065  4.9602167291359347  4.6765371804359681  T T T 
 20.0464772466386236  4.9602167291359347  4.6765371804359681  T T T 
  4.2956736957082766  7.4403250937039020  4.6765371804359681  T T T 
  7.1594561595137947  7.4403250937039020  4.6765371804359681  T T T 
 10.0232386233193118  7.4403250937039020  4.6765371804359681  T T T 
 12.8870210871248290  7.4403250937039020  4.6765371804359681  T T T 
 15.7508035509303461  7.4403250937039020  4.6765371804359681  T T T 
 18.6145860147358633  7.4403250937039020  4.6765371804359681  T T T 
 21.4783684785413840  7.4403250937039020  4.6765371804359681  T T T 
  5.7275649276110352  9.9204334582718694  4.6765371804359681  T T T 
  8.5913473914165532  9.9204334582718694  4.6765371804359681  T T T 
 11.4551298552220704  9.9204334582718694  4.6765371804359681  T T T 
 14.3189123190275893  9.9204334582718694  4.6765371804359681  T T T 
 17.1826947828331065  9.9204334582718694  4.6765371804359681  T T T 
 20.0464772466386236  9.9204334582718694  4.6765371804359681  T T T 
 22.9102597104441408  9.9204334582718694  4.6765371804359681  T T T 
  7.1594561595137938 12.4005418228398376  4.6765371804359681  T T T 
 10.0232386233193118 12.4005418228398376  4.6765371804359681  T T T 
 12.8870210871248290 12.4005418228398376  4.6765371804359681  T T T 
 15.7508035509303461 12.4005418228398376  4.6765371804359681  T T T 
 18.6145860147358633 12.4005418228398376  4.6765371804359681  T T T 
 21.4783684785413804 12.4005418228398376  4.6765371804359681  T T T 
 24.3421509423469011 12.4005418228398376  4.6765371804359681  T T T 
  8.5913473914165532 14.8806501874078041  4.6765371804359681  T T T 
 11.4551298552220704 14.8806501874078041  4.6765371804359681  T T T 
 14.3189123190275893 14.8806501874078041  4.6765371804359681  T T T 
 17.1826947828331065 14.8806501874078041  4.6765371804359681  T T T 
 20.0464772466386236 14.8806501874078041  4.6765371804359681  T T T 
 22.9102597104441408 14.8806501874078041  4.6765371804359681  T T T 
 25.7740421742496579 14.8806501874078041  4.6765371804359681  T T T 
