undoped                                 
   1.0000000000000000     
    17.3520000000000003    0.0000000000000000    0.0000000000000000
     0.0000000000000000   15.0272728064999992    0.0000000000000000
     0.0000000000000000    0.0000000000000000   10.6393173196999999
   B    N    Al
    48    48   128
Direct
  0.9848997529240352  0.9860908818353206  0.9997460027368011
  0.9891018066101314  0.1623218168515054  0.9781467158149896
  0.9876624494936661  0.3286974169216331  0.0335854633105410
  0.9853860608213976  0.4976602291732409  0.0283922819480420
  0.9853333794260435  0.6680063016196816  0.0159379278907336
  0.9817505330724682  0.8321930189428274  0.0543017853123807
  0.1090912366744714  0.0837821452050825  0.0113849847357838
  0.1139958588964035  0.2440279554611561  0.0039294026289808
  0.1079825116873753  0.4122192252289750  0.0005492833358246
  0.1114470773905727  0.5835612316662877  0.9900128890833655
  0.1090543060489082  0.7480797332462468  0.0152605543855560
  0.1074711437862260  0.9153355532835847  0.0130744026332123
  0.2322406095390225  0.0031400313687606  0.0345545940132541
  0.2359824793218157  0.1643961641953733  0.9628274818010703
  0.2372327384684543  0.3288543058228134  0.9789013127192959
  0.2327396942356323  0.4985366464235194  0.9852691228215864
  0.2387557540182041  0.6706079890525504  0.0148354892406410
  0.2352661634242213  0.8362626884411489  0.0257519104492296
  0.3612747307831294  0.0864798410957146  0.9758079372371840
  0.3639548430009045  0.2527455844319439  0.0413732859650335
  0.3574282876114997  0.4266512375011816  0.0164983293963618
  0.3607596964994362  0.5894809688838780  0.9615133482379640
  0.3581335432960647  0.7552249222780202  0.9911588166717208
  0.3598137958156715  0.9255125683285571  0.0265710402707907
  0.4863233753854538  0.0053272830460738  0.9793755560597791
  0.4867361063302661  0.1716413557964347  0.0335432723771646
  0.4885730511713204  0.3363744826264248  0.0262159446149045
  0.4879179242249610  0.5051686519415229  0.9860509468675160
  0.4902645839115223  0.6750195683203483  0.9665424340597069
  0.4839312215828941  0.8391034712325839  0.9660350357622018
  0.6155856728396835  0.0927809339500346  0.0121748141488681
  0.6112605886912803  0.2554218946692236  0.0448475538610563
  0.6097992963107561  0.4175761219327438  0.9899758111585782
  0.6119166072510182  0.5912332151568035  0.9530918225746644
  0.6121673897005936  0.7562474338440331  0.0261407815769003
  0.6109319314063834  0.9316623626076030  0.0113830987879146
  0.7435073212638276  0.0073285082451256  0.0300077744591221
  0.7333388978886438  0.1698539216180537  0.9654829322997782
  0.7336430136196810  0.3272240820777969  0.0215807438550411
  0.7362289266678683  0.4976911655685688  0.0125681119366275
  0.7370126968201223  0.6678446004459426  0.0082720967341099
  0.7419668328877024  0.8362825227848724  0.0075203257507535
  0.8639109316351309  0.0787797928967283  0.9676870654845787
  0.8619856124387822  0.2450050833086221  0.0060769533766095
  0.8583861893709206  0.4090548332006916  0.0182524487449509
  0.8636029322604721  0.5778343292448901  0.0148549525223462
  0.8619409894736711  0.7451718004716317  0.0518631032043218
  0.8637270063251594  0.9124081968465819  0.0234227275533972
  0.0662283268181180  0.0004695592782537  0.0336772987087883
  0.0724481464275166  0.1635402391926253  0.9892908198711468
  0.0678083098116121  0.3280703908010686  0.0024204460444355
  0.0694798295003915  0.4957459315640665  0.9957505260209596
  0.0655637870640179  0.6710791903575196  0.9655464738362035
  0.0655989442184051  0.8308478262214546  0.0355743320899949
  0.1903760863738502  0.0834046568497301  0.0193091373485637
  0.1945386359407946  0.2432143321199603  0.0204510433921340
  0.1928197782081175  0.4141251257838905  0.0085500539667996
  0.1954580145124820  0.5859976120662276  0.0093362344735140
  0.1922754476258965  0.7524256559940073  0.0082821615530140
  0.1919408728607404  0.9197835167865002  0.0203449167854710
  0.3167525637198668  0.0124454455644479  0.0320690589285962
  0.3229311686796083  0.1722949896213026  0.9654783742382946
  0.3251545972859897  0.3369460517853514  0.0105428807465528
  0.3156315454085236  0.5051211083763829  0.9809864896510588
  0.3179727009319723  0.6716019647464995  0.9766685249288141
  0.3211133220811073  0.8374625084660001  0.0198370666293127
  0.4425889307893551  0.0892897297871854  0.9975067349170381
  0.4449020186167419  0.2536238600913889  0.9913355503104041
  0.4406934941625574  0.4174900184698365  0.0156833269424616
  0.4456711037138588  0.5901311087454790  0.9704902553304994
  0.4414229718889108  0.7523402872168399  0.9492261168663816
  0.4455730325816613  0.9223598779693313  0.0077750075972706
  0.5708693414165584  0.0119232021822121  0.9930861488601683
  0.5713076215404740  0.1728427642994706  0.0218080434097493
  0.5692519484784182  0.3337641662348941  0.9955196816823684
  0.5698528543138853  0.5029759298402954  0.0222087194536782
  0.5715985042913179  0.6720927705450372  0.0024593546645682
  0.5709912202100548  0.8419982134575247  0.9803440235052051
  0.6976019899906180  0.0832937837016171  0.0008470960067128
  0.6932652809930010  0.2491765441615081  0.0150533679122402
  0.6943871723596522  0.4113793458933127  0.0068535427817158
  0.6937726153284364  0.5818231769501492  0.9955312084260348
  0.6978093838264594  0.7520371755241282  0.9934642875721021
  0.6962122965961659  0.9199443774531748  0.0288116828969622
  0.8278211494539440  0.9957814714878436  0.0141876500928999
  0.8181281425802949  0.1660643508855321  0.9812321165762091
  0.8178941142939800  0.3261087894608024  0.0276217705598971
  0.8204003000806651  0.4961944171775278  0.0230522745682252
  0.8212818789172704  0.6610840121619229  0.0228023776748854
  0.8244885179880213  0.8309081992580855  0.0419340923281353
  0.9471045413333041  0.0765440933515768  0.9709019015934357
  0.9444991165338469  0.2451505294125129  0.0037049135158045
  0.9412192476527913  0.4127101744424198  0.0298706422544339
  0.9463246379341288  0.5824214550685931  0.0270528052707665
  0.9430460235259557  0.7476024225279458  0.0497707020514019
  0.9432990105279327  0.9114070467590737  0.0615479232379161
  0.0519884611805793  0.0426624819199162  0.7892524378862347
  0.1282981288053386  0.4369337801643609  0.3601045186003669
  0.5357260644731644  0.1980399037569467  0.6859260210177989
  0.6273214161960107  0.9249015766504837  0.2243370415603106
  0.6674309475666613  0.2507337706428601  0.7402819381494673
  0.0219125162947108  0.2277230649223624  0.7159522887331439
  0.5847883702231513  0.8193464818704271  0.4633521852792616
  0.3578141028832392  0.1681859884681837  0.7671924650358900
  0.9255175185688266  0.1110380069888162  0.6729890609475182
  0.8026512686107246  0.1754691980536469  0.3095506818319083
  0.4622612992860383  0.5110602881734144  0.7698085268451261
  0.0510507445485769  0.7677605915740920  0.5233043820637876
  0.9114710819758780  0.5481997251807916  0.6733268406793351
  0.1898150257237125  0.5816926101411042  0.2243650215416670
  0.4557552516670513  0.5633895963430563  0.1615797058137446
  0.8203791766684255  0.3984349624208733  0.7575873077316511
  0.6152474609839372  0.4079694915122747  0.3063867542640471
  0.6943684053898745  0.9213143174184991  0.8467916331690141
  0.9396853199694151  0.8042258044930017  0.3708857902377411
  0.1910260664591292  0.3521157609550725  0.5709269118213390
  0.4112812164123831  0.7114905193083578  0.7567606874476618
  0.1828553808493417  0.9586509180287215  0.7015800532739132
  0.6834137349061019  0.4257114330335670  0.8120253583162276
  0.0853706850275214  0.6744503443537405  0.2937156837888639
  0.7915445538609664  0.8301077159702441  0.7616387107518002
  0.5718255425029541  0.5715204586228517  0.3491892352452635
  0.7520328341462723  0.5615453413248640  0.6850721597299388
  0.3176293955968396  0.1726236971638702  0.2071558970326600
  0.3339231561289709  0.3012722780639939  0.5919417324827781
  0.4491610999256928  0.0366592035486244  0.5517756809396756
  0.5642373905919983  0.3617457635083349  0.7413485947573425
  0.5681536412470625  0.2589885047443082  0.2855229101591200
  0.9290159549751199  0.9725823882575670  0.2809289939382042
  0.7269333122789098  0.8252983734166155  0.4182304413093758
  0.3388126385335051  0.4843284831789689  0.7647471244953598
  0.4542187510807317  0.7264562902198981  0.2506971764192724
  0.8648246860691925  0.0457359849244364  0.4732324093297593
  0.4975143826559615  0.3195480906282502  0.5342422601286163
  0.3946907183252530  0.3486591744568259  0.8473069497356347
  0.5060826050890772  0.6891508396298718  0.5306971420705074
  0.8362800527046005  0.3399156006096634  0.2987516299042901
  0.4824701063004904  0.1044531597797952  0.2104136233233450
  0.4257740405214919  0.8710669483416014  0.6901948108847059
  0.9275766132311142  0.7391957472652684  0.7147027556696792
  0.8517086032584574  0.6372414840921289  0.8197519438003018
  0.9110922602038667  0.2005998471591755  0.4548425727312291
  0.7817355415852105  0.1405715503593361  0.7799392618150819
  0.5438127429609921  0.9745485591696672  0.3684227691487137
  0.6782195059188341  0.8434371453492819  0.6480476046361158
  0.1906702287130380  0.5133448563313424  0.7536222679808766
  0.7873452933609812  0.0098913314924767  0.6758720525072003
  0.6211658445863179  0.7207958021209419  0.2391657262453369
  0.4720638322645267  0.8846987731321796  0.2207035953724878
  0.3149688338426310  0.6071026537582204  0.6091700812928360
  0.4994610143048965  0.0471655330099342  0.7968043385506389
  0.3423991017329287  0.8388281781268709  0.2736319247500993
  0.7554097288444138  0.1699675872065776  0.5530698270659882
  0.4622885125072263  0.4178256915422123  0.2886706105363187
  0.6902137564087227  0.9971241593783400  0.4758025127797529
  0.5808289994687168  0.8096446006843130  0.7937927836862730
  0.6271875778757269  0.1067930695660793  0.2545808327059284
  0.1907130023436937  0.1131320057063442  0.7779132332487444
  0.9380104635024435  0.1310358685544870  0.2080109780174784
  0.9422234506394185  0.6275752344002301  0.4897214401727180
  0.0735203961089870  0.8732730741568486  0.2717383808937900
  0.6618952280142517  0.4650733135669844  0.5348754311561624
  0.2230970306199422  0.4017041906388290  0.1769162107582967
  0.5945999085421805  0.5865044771050789  0.7354427602017136
  0.6475905695573874  0.6593955485579522  0.5304595458334078
  0.2859938350202733  0.1566888822785419  0.4796900886734435
  0.8035977794962920  0.7016939268843366  0.5510802970036729
  0.0448610226827965  0.6541309145017281  0.7801915380393514
  0.4102359024109918  0.5874413205477568  0.4219980957947509
  0.9917677674973463  0.9283620915219757  0.5062965071837031
  0.4249858125186449  0.1796754441866965  0.4374279943336537
  0.2745549592530892  0.8073235458418357  0.6686714089313914
  0.7497355310727923  0.4740194916816801  0.2460526712558245
  0.0484391168203217  0.2084252225055225  0.3268419148928827
  0.1433998177549033  0.1989194293988113  0.5690721935969423
  0.6423695011865572  0.0959742410391566  0.6611382823405220
  0.0392471815481258  0.5314975139125526  0.2815077041740104
  0.7742309553505223  0.6882499881418245  0.2502287140351837
  0.9724401628162134  0.3667821489792670  0.7698982206957954
  0.2581931276823164  0.2931292578813993  0.7878237653415108
  0.7845327134113232  0.3350598095775793  0.5097946524624833
  0.1887184997059782  0.8526255931975590  0.4715863986990096
  0.3314913622736502  0.3305245401864881  0.3175458724240609
  0.7025502852401840  0.6991535528587115  0.7641100790420464
  0.5193593937974480  0.4962512837870496  0.5772390697861006
  0.6929992222903005  0.2792747086025714  0.2475200533006232
  0.5714072981255710  0.9645664843887802  0.6319045652815939
  0.9943493815712884  0.3500765022638241  0.2797473073224740
  0.8706550165313701  0.2620422832178068  0.6980294745881145
  0.9324404701788840  0.3945166186105861  0.5373174341741626
  0.0521503094823279  0.3391295832128852  0.5058158255871322
  0.1983899053140512  0.2670428606909929  0.3452844541897750
  0.3586962860947036  0.7491038668940051  0.4644360858340662
  0.3223703994134506  0.0075284063813537  0.7654573787157024
  0.5662965543353441  0.1506180879412143  0.4595273063990230
  0.2128585940862707  0.6710033321292338  0.4360218356938726
  0.8495774848685128  0.8853866435325781  0.5545646162627778
  0.1819833318218645  0.6860444211032612  0.6535272120600307
  0.8113735733154733  0.8512379894631498  0.2501897548146143
  0.7885944157675833  0.5532772311240312  0.4636275948962587
  0.0927398450412474  0.8163777643387169  0.7416073652307360
  0.6136179489898519  0.5433725767578866  0.1575166466028013
  0.3687487404171366  0.4458693101107828  0.5294185420148013
  0.3213330140548317  0.6546965743774066  0.2523643347664283
  0.9446874784752091  0.9099752066335605  0.7466998242794267
  0.3554935916197030  0.0051256312634708  0.2229888807405276
  0.0967364076736715  0.5760728949689592  0.5193136554267700
  0.2153213975279271  0.9315207195838243  0.2330433911824358
  0.7631643891343930  0.0176680001848469  0.2729341842667347
  0.0625277681669993  0.0372128282726002  0.2589389464045054
  0.1958508908237920  0.0918120226588370  0.2852741915067110
  0.8904838727354754  0.4960786083554890  0.2968235910986143
  0.0567831920545644  0.4901227971419501  0.6882169479816483
  0.1287716907918976  0.3246638724158852  0.8059793750669416
  0.3227290789258499  0.4996923645751200  0.2966050986140622
  0.9263484926663517  0.6623510697515297  0.2300230048114102
  0.3067825065015003  0.9525882795687759  0.5304147276592112
  0.1333653063384806  0.0005706626622278  0.4744163628579418
  0.2140171901500162  0.7674233910073532  0.2234260858255665
  0.6441532308180438  0.2803509418250812  0.4956718774667256
  0.0117609153995291  0.0939883061830519  0.5020748812574012
  0.4426115573472044  0.8870259754297086  0.4556279413769974
  0.2415501990573838  0.4892692305812756  0.5273338601445436
  0.4376401932235283  0.2573826097130590  0.1952924950031588

  0.96368036E-02  0.62836277E-02  0.10834274E-01
  0.59371261E-02  0.52631029E-02  0.35363442E-02
  0.26170185E-03 -0.37886349E-02  0.41771646E-02
 -0.43429284E-02  0.78640304E-02  0.51938349E-02
 -0.49299450E-02  0.18223407E-01 -0.50983579E-02
  0.79362916E-02  0.13131066E-01 -0.71933325E-02
 -0.53954660E-02 -0.48790516E-02  0.15091288E-01
  0.34831381E-02  0.43865480E-03 -0.10179945E-01
 -0.28451478E-02  0.85004277E-02 -0.11803252E-01
 -0.79960272E-02  0.32442320E-02  0.15560943E-01
  0.15562654E-02  0.90696161E-03 -0.34359821E-02
 -0.70088393E-02  0.64093326E-02  0.19358951E-02
  0.57504314E-02  0.67998749E-02 -0.34053597E-02
  0.60129722E-02 -0.32434501E-02  0.17815455E-01
  0.12366106E-01 -0.20083507E-02 -0.41814658E-02
 -0.67864116E-02  0.30040851E-02 -0.74314810E-02
  0.20909292E-02  0.70317341E-02  0.92847445E-04
 -0.10812249E-02  0.19631227E-02 -0.55557911E-02
  0.17601128E-02  0.27084569E-02 -0.64669327E-03
 -0.91615274E-02  0.34375167E-02  0.14175480E-01
 -0.87170328E-02  0.18890350E-02  0.47780966E-02
  0.96856191E-02 -0.92937466E-03 -0.13504440E-01
  0.36523934E-02  0.45104970E-02 -0.12091528E-02
 -0.21130115E-02  0.53983236E-02 -0.25509639E-02
 -0.85376205E-04  0.14963626E-03  0.24543892E-01
  0.96699022E-02  0.71113949E-02 -0.97681750E-02
  0.27984561E-02  0.21533788E-03 -0.11223912E-02
  0.69296994E-02  0.45424774E-02  0.83411527E-02
 -0.84770075E-02 -0.44748411E-02  0.51436616E-02
 -0.27898683E-02 -0.19195915E-01  0.28255148E-02
  0.38653937E-03 -0.39466163E-02  0.15523500E-02
  0.36284693E-02 -0.11087156E-01  0.15150395E-01
 -0.55353235E-02 -0.56879322E-02 -0.96350242E-02
  0.56714270E-02 -0.46549038E-02  0.39699943E-02
 -0.48574063E-03 -0.30854214E-02  0.14316158E-01
 -0.13080618E-01 -0.12923751E-01 -0.88075932E-02
  0.30777879E-02 -0.90500675E-02 -0.16776690E-01
  0.27595206E-02 -0.38201484E-03  0.92121454E-02
 -0.19758044E-02 -0.43080154E-02 -0.12671818E-01
  0.11809253E-01  0.17494076E-02 -0.11318689E-01
 -0.18986130E-02  0.10554921E-01  0.36866868E-02
  0.44643107E-02  0.49204406E-03 -0.76975794E-02
  0.10806575E-01  0.49132794E-02  0.61319884E-02
 -0.55130000E-02 -0.13329530E-01 -0.51875347E-02
 -0.55020079E-03 -0.80543438E-02 -0.54133090E-02
 -0.87777122E-02  0.36648175E-02  0.11372713E-01
 -0.38570134E-02  0.13886210E-01  0.18985457E-01
  0.26627104E-02 -0.42945314E-02  0.60415103E-02
 -0.41261300E-02  0.37910161E-02  0.87417736E-02
  0.58044642E-02 -0.38339852E-02  0.17089688E-01
  0.40998874E-02 -0.22182912E-03 -0.15174194E-02
 -0.44314527E-02  0.68859243E-02  0.79477946E-02
  0.37529278E-02 -0.28568243E-02  0.23249066E-01
  0.40296198E-03  0.10900402E-01 -0.23503837E-02
 -0.64756535E-02 -0.67963371E-03 -0.25862276E-02
  0.49067266E-03 -0.87398487E-02 -0.18643280E-01
  0.35360921E-02  0.35763273E-02 -0.18738046E-01
 -0.46658879E-02  0.13879125E-02  0.20738555E-02
 -0.71062889E-02  0.37899836E-02 -0.28179396E-02
 -0.83981138E-02  0.66548886E-02  0.87555812E-02
  0.24587441E-02 -0.24689277E-04 -0.99976413E-04
  0.13139145E-02  0.30883769E-02 -0.90207967E-02
  0.97272043E-03  0.86663530E-02  0.11240065E-01
 -0.55293119E-02  0.55013550E-03 -0.12821329E-01
  0.83939693E-02 -0.15992446E-02 -0.42895687E-02
 -0.14618618E-02 -0.42901201E-02  0.12980778E-01
  0.26313663E-02  0.17393020E-02  0.64042693E-02
 -0.17112922E-02 -0.47606029E-02  0.10891071E-01
  0.78673759E-02  0.67702321E-02  0.59544255E-02
  0.41515259E-02  0.45555060E-02 -0.19607558E-02
 -0.27962962E-02 -0.14055683E-01 -0.63133970E-02
 -0.82498177E-02 -0.51367131E-02 -0.12813098E-01
 -0.45363775E-02 -0.78355328E-02 -0.73499656E-02
  0.74296142E-02  0.46112508E-02 -0.15527242E-01
  0.40628360E-02 -0.83828301E-02  0.19843303E-01
  0.31146770E-02 -0.51688367E-02 -0.90146501E-02
  0.33519155E-02 -0.66551015E-02  0.11449856E-02
 -0.11345325E-01 -0.30940861E-02  0.43003638E-02
  0.10973069E-02 -0.41015603E-02 -0.92326128E-02
 -0.16508454E-02 -0.37354774E-02  0.29760692E-02
  0.95777041E-02  0.46478673E-02  0.52097707E-02
  0.43841550E-02 -0.98532846E-03  0.53744454E-02
  0.16441131E-02 -0.40401969E-02  0.94426722E-02
  0.31346435E-02 -0.26097658E-02  0.28595794E-02
  0.31417992E-02 -0.19783889E-02  0.30608517E-02
 -0.60963993E-02 -0.36853079E-02 -0.36324860E-02
  0.10176498E-01 -0.10657654E-01  0.81309961E-02
  0.58859133E-02 -0.26705938E-02  0.33712990E-02
 -0.33729178E-02  0.43669361E-02  0.18056914E-01
 -0.24649012E-02 -0.70649659E-02  0.49277438E-02
  0.61200178E-02  0.44900085E-02 -0.34853301E-02
  0.19288955E-02 -0.44024129E-02 -0.27000689E-02
 -0.56080282E-03 -0.65301426E-03 -0.49819388E-02
 -0.14559968E-02  0.18732944E-01  0.14006145E-02
  0.45580836E-02  0.12485974E-01  0.15336353E-01
  0.79988099E-02  0.12553832E-01 -0.10993886E-01
 -0.17221231E-01 -0.39744367E-02 -0.31073249E-02
  0.70853057E-03  0.32974868E-02  0.11944652E-01
 -0.11163674E-01  0.98366184E-03  0.16194214E-02
  0.49155870E-02 -0.59595056E-02  0.19561325E-02
 -0.61256351E-02  0.32726779E-02 -0.67891427E-02
  0.51294139E-02  0.18887394E-02 -0.12371920E-02
 -0.51863290E-02 -0.60038043E-02 -0.20387391E-01
  0.67645944E-02  0.84633000E-02  0.80500483E-02
 -0.12126477E-01 -0.13239965E-02 -0.46295511E-02
  0.91488830E-02  0.56254294E-03 -0.17337690E-03
  0.24529163E-02 -0.99236868E-02  0.10938591E-02
 -0.43833013E-02  0.18751931E-02  0.27923024E-02
  0.41478922E-02  0.95361617E-02 -0.70194551E-02
 -0.16889869E-02  0.97195266E-02 -0.10932357E-01
 -0.81511806E-02  0.96680555E-04  0.58669091E-03
  0.42295739E-02  0.56136077E-02  0.22922403E-02
 -0.32002462E-02  0.12650833E-02 -0.75942372E-02
  0.10364977E-01  0.60700650E-02  0.92935898E-02
 -0.20301694E-02 -0.51376727E-02  0.11997201E-03
  0.88563206E-02  0.41021834E-02  0.10354667E-01
  0.52744230E-02 -0.19106351E-02 -0.34994611E-02
 -0.17112858E-02  0.13480225E-02  0.58840941E-02
 -0.11728148E-02  0.24903343E-02 -0.13316663E-01
  0.10622634E-01  0.10796957E-01 -0.45706704E-02
  0.13193779E-01 -0.11150034E-02 -0.21401842E-02
 -0.65276232E-02  0.13625812E-01  0.38883431E-02
 -0.48337138E-02 -0.77300949E-02 -0.83233125E-02
  0.92746280E-02  0.13056050E-03 -0.28989758E-02
 -0.39931533E-02  0.87253637E-02  0.22607366E-02
 -0.14520612E-01 -0.17807288E-02  0.47337276E-02
 -0.78831671E-02  0.28796783E-02 -0.72460155E-02
  0.72838591E-02 -0.13828656E-01  0.25759851E-02
 -0.22676441E-02 -0.57065680E-02  0.11212321E-01
  0.44252325E-02  0.51118292E-03 -0.16290747E-01
  0.32016612E-02  0.71818508E-02  0.16698870E-02
  0.84078516E-02 -0.88181725E-02 -0.13052308E-01
  0.56859879E-02 -0.10731937E-01  0.47536400E-02
  0.84813855E-02  0.34925165E-02 -0.25520359E-03
 -0.12658799E-02 -0.37963694E-02 -0.80127712E-03
 -0.12326034E-01 -0.86138657E-02 -0.26540333E-03
  0.10597459E-01  0.16178382E-01  0.13082924E-01
 -0.70234858E-02 -0.35640108E-02  0.66343533E-02
 -0.31455966E-02 -0.40284407E-03 -0.24690090E-02
 -0.27209942E-02 -0.50216653E-03  0.20789340E-02
 -0.61364532E-02 -0.66172384E-02  0.67098103E-02
 -0.21311086E-02  0.11897558E-01 -0.94003255E-02
 -0.67346752E-03  0.15452845E-03 -0.17144923E-02
 -0.18768140E-01  0.12176587E-01 -0.30966466E-02
  0.10705685E-01  0.63372113E-02  0.14721910E-01
  0.88737117E-02 -0.10593567E-01  0.14251579E-01
  0.12312474E-02  0.46449563E-02 -0.44181723E-02
  0.13750896E-01  0.10880714E-02  0.69288185E-02
 -0.10150906E-01 -0.75735297E-02 -0.11653455E-02
  0.11877979E-01 -0.53779034E-02  0.63639217E-03
 -0.28472486E-02 -0.28028630E-02  0.43580505E-02
  0.59820868E-02  0.21034700E-03 -0.26661535E-02
  0.27003288E-02 -0.10289493E-01  0.29359030E-02
  0.78098273E-02 -0.84177236E-02  0.16351391E-04
 -0.26518956E-02 -0.20536580E-03  0.27420148E-02
 -0.68307642E-02  0.72997386E-02 -0.88336467E-02
 -0.12150972E-01  0.64610758E-02 -0.50722125E-02
  0.26385391E-02  0.82392848E-02 -0.16004885E-02
 -0.59330848E-02 -0.17726263E-02 -0.41000209E-02
 -0.49687324E-02 -0.26032475E-02 -0.22024731E-02
  0.92776490E-04 -0.62401034E-02 -0.78019855E-02
  0.76017175E-02 -0.91404356E-02  0.49336004E-02
 -0.26461753E-02 -0.48436155E-03  0.43108576E-02
  0.52657819E-02 -0.50587692E-02 -0.61152011E-02
 -0.30905019E-02  0.10414766E-01 -0.46366752E-02
 -0.45867262E-03  0.26642282E-02 -0.70619190E-02
  0.37359960E-02 -0.39648942E-02  0.27669036E-02
 -0.12730187E-02 -0.52753994E-02 -0.49994009E-04
  0.11647864E-01  0.28197714E-03  0.17667682E-02
 -0.33321608E-02  0.14321899E-02 -0.71737024E-02
 -0.69216934E-02  0.47429903E-02 -0.54439900E-02
  0.33627049E-02  0.24854759E-02 -0.90190092E-03
  0.32528356E-02  0.22164775E-03 -0.37868678E-02
  0.10942013E-02  0.25669184E-02  0.39199989E-02
 -0.24203386E-02  0.71764944E-02 -0.54632014E-02
  0.11312342E-02  0.78330798E-02 -0.84538258E-02
 -0.80958446E-03  0.26944081E-02  0.66565927E-02
  0.65218533E-02 -0.60349024E-02  0.35321020E-02
  0.81051652E-02 -0.76785461E-02  0.59133534E-02
  0.73656268E-02 -0.81647159E-03 -0.11805855E-01
 -0.43783083E-02  0.45241049E-02  0.14656584E-01
  0.63662546E-03  0.10863235E-01 -0.23336652E-02
  0.55653113E-02 -0.18889474E-01 -0.92636877E-02
 -0.30793169E-03 -0.53503312E-02 -0.95991176E-02
 -0.10514695E-01  0.10453214E-02 -0.49406044E-03
 -0.38471690E-02 -0.96803015E-02 -0.20630183E-02
  0.38915781E-02 -0.11183080E-01 -0.81284102E-02
  0.19799265E-02 -0.13220122E-01 -0.81257791E-02
  0.68508026E-02  0.46900730E-02  0.30237183E-03
 -0.17599355E-01 -0.24465092E-04 -0.70771868E-02
 -0.63346725E-02 -0.48408717E-02 -0.90183028E-02
 -0.12912106E-01  0.10478119E-01 -0.10501415E-01
 -0.46558447E-02  0.12425981E-02  0.11395346E-02
  0.70209691E-02 -0.16622417E-02  0.45714926E-02
 -0.49811909E-03 -0.91043699E-02 -0.54620816E-02
 -0.11974779E-01  0.61941692E-02  0.64641197E-02
 -0.36365083E-03 -0.52827959E-02  0.19694323E-02
  0.10402659E-01 -0.63544797E-02  0.30456546E-02
 -0.65781951E-02  0.44160553E-02  0.11271944E-01
  0.12875994E-02  0.99919346E-02  0.17748752E-01
  0.27693836E-02 -0.13030930E-01  0.34918788E-02
 -0.11715338E-02 -0.35782455E-02  0.59833823E-02
 -0.61457723E-02  0.11164293E-01 -0.11850261E-01
  0.14959898E-02 -0.12768018E-01 -0.54462417E-02
 -0.16559834E-02  0.10917593E-01 -0.10258109E-01
  0.68477763E-02  0.15381840E-02 -0.46043802E-02
 -0.10178335E-01  0.17062799E-01  0.58604666E-02
 -0.37958427E-02 -0.10227331E-01 -0.12453476E-01
  0.12001657E-01  0.61591466E-02 -0.27307524E-02
  0.37643715E-02  0.80624794E-02  0.53080664E-02
 -0.49651532E-02 -0.11709513E-02  0.14518929E-01
 -0.60553394E-03 -0.50391908E-02  0.81852254E-03
 -0.11648750E-01 -0.18025536E-02  0.37080902E-02
 -0.88628046E-02  0.10669592E-01 -0.36602385E-03
  0.10689163E-02 -0.37617024E-02  0.73446780E-02
  0.54400388E-02 -0.54606028E-02 -0.17781812E-02
 -0.38794808E-02  0.12087493E-02  0.92884947E-02
 -0.15579120E-02  0.25637956E-02  0.81799982E-02
 -0.10764029E-02 -0.57520527E-02 -0.82245226E-02
  0.12770572E-01  0.28952274E-02 -0.51212302E-02
  0.35626119E-02 -0.70192326E-03  0.11901886E-01
  0.18368754E-02 -0.25750116E-02 -0.70990295E-03
 -0.80058131E-02 -0.63357962E-03 -0.60145452E-02
 -0.65259500E-02 -0.11129796E-01  0.29777541E-02

           1
  0.54731196234688684     
  0.74685360E+00  0.62911261E-03 -0.24829532E-03  0.00000000E+00
  0.98520371E+00  0.98631974E+00  0.30334373E-03
  0.98928907E+00  0.16251351E+00  0.97832863E+00
  0.98767070E+00  0.32855943E+00  0.33800347E-01
  0.98524908E+00  0.49794665E+00  0.28659465E-01
  0.98517788E+00  0.66867002E+00  0.15675656E-01
  0.98200086E+00  0.83267127E+00  0.53931743E-01
  0.10892105E+00  0.83604444E-01  0.12161317E-01
  0.11410572E+00  0.24404393E+00  0.34057219E-02
  0.10789277E+00  0.41252882E+00  0.99994210E+00
  0.11119487E+00  0.58367939E+00  0.99081338E+00
  0.10910339E+00  0.74811277E+00  0.15083799E-01
  0.10725007E+00  0.91556899E+00  0.13173990E-01
  0.23242199E+00  0.33876913E-02  0.34379414E-01
  0.23617214E+00  0.16427803E+00  0.96374395E+00
  0.23762279E+00  0.32878116E+00  0.97868621E+00
  0.23252564E+00  0.49864606E+00  0.98488683E+00
  0.23882171E+00  0.67086409E+00  0.14840266E-01
  0.23523206E+00  0.83633419E+00  0.25466107E-01
  0.36133025E+00  0.86578486E-01  0.97577467E+00
  0.36366587E+00  0.25287078E+00  0.42102507E-01
  0.35715334E+00  0.42672004E+00  0.16744126E-01
  0.36106520E+00  0.58944712E+00  0.96081865E+00
  0.35824875E+00  0.75538920E+00  0.99109661E+00
  0.35974715E+00  0.92570918E+00  0.26439813E-01
  0.48632068E+00  0.53327330E-02  0.98063815E+00
  0.48704111E+00  0.17190036E+00  0.33040774E-01
  0.48866132E+00  0.33638233E+00  0.26158206E-01
  0.48813650E+00  0.50533409E+00  0.98648004E+00
  0.48999720E+00  0.67485659E+00  0.96680704E+00
  0.48384322E+00  0.83840433E+00  0.96618039E+00
  0.61559786E+00  0.92637193E-01  0.12254671E-01
  0.61137504E+00  0.25501809E+00  0.45626926E-01
  0.60962470E+00  0.41736896E+00  0.98948016E+00
  0.61209549E+00  0.59106368E+00  0.95329605E+00
  0.61215207E+00  0.75613506E+00  0.26877239E-01
  0.61051935E+00  0.93119166E+00  0.10930015E-01
  0.74360440E+00  0.69988935E-02  0.29144741E-01
  0.73342594E+00  0.16984001E+00  0.96595683E+00
  0.73358069E+00  0.32706718E+00  0.20928875E-01
  0.73660141E+00  0.49775488E+00  0.11985851E-01
  0.73695281E+00  0.66822902E+00  0.84617487E-02
  0.74210764E+00  0.83630044E+00  0.71243438E-02
  0.86425179E+00  0.78958741E-01  0.96800251E+00
  0.86181172E+00  0.24451961E+00  0.58100942E-02
  0.85836884E+00  0.40876148E+00  0.17973975E-01
  0.86332607E+00  0.57796781E+00  0.15439992E-01
  0.86181933E+00  0.74567755E+00  0.52839761E-01
  0.86381099E+00  0.91225178E+00  0.23733517E-01
  0.66098182E-01  0.60763280E-03  0.34126996E-01
  0.72631229E-01  0.16340060E+00  0.99016995E+00
  0.67937627E-01  0.32806231E+00  0.23423864E-02
  0.69340054E-01  0.49599673E+00  0.99615938E+00
  0.65682161E-01  0.67097514E+00  0.96674246E+00
  0.65611654E-01  0.83124483E+00  0.35453423E-01
  0.19017183E+00  0.83379904E-01  0.19176096E-01
  0.19455411E+00  0.24289602E+00  0.19491988E-01
  0.19293131E+00  0.41425538E+00  0.75861240E-02
  0.19531084E+00  0.58604816E+00  0.94429186E-02
  0.19205130E+00  0.75256369E+00  0.81372000E-02
  0.19167598E+00  0.92002590E+00  0.20795325E-01
  0.31683012E+00  0.12444546E-01  0.32063916E-01
  0.32297261E+00  0.17240747E+00  0.96501432E+00
  0.32518528E+00  0.33726169E+00  0.11121097E-01
  0.31545714E+00  0.50514114E+00  0.98032693E+00
  0.31823746E+00  0.67154372E+00  0.97644786E+00
  0.32106721E+00  0.83730626E+00  0.20504829E-01
  0.44267193E+00  0.89353077E-01  0.99783619E+00
  0.44484804E+00  0.25345047E+00  0.99189581E+00
  0.44094164E+00  0.41773660E+00  0.15989637E-01
  0.44580205E+00  0.59029703E+00  0.97038939E+00
  0.44133477E+00  0.75182836E+00  0.94890134E+00
  0.44531282E+00  0.92217279E+00  0.71158712E-02
  0.57072626E+00  0.11637822E-01  0.99270805E+00
  0.57154196E+00  0.17301071E+00  0.21009285E-01
  0.56938010E+00  0.33345885E+00  0.99654047E+00
  0.56995110E+00  0.50278767E+00  0.21744984E-01
  0.57170423E+00  0.67185038E+00  0.25182555E-02
  0.57063337E+00  0.84188552E+00  0.98056524E+00
  0.69763660E+00  0.83144400E-01  0.37214829E-03
  0.69321321E+00  0.24904049E+00  0.15206464E-01
  0.69468927E+00  0.41154863E+00  0.71215459E-02
  0.69391090E+00  0.58178729E+00  0.99580768E+00
  0.69786124E+00  0.75189003E+00  0.99395004E+00
  0.69631117E+00  0.91984933E+00  0.28958787E-01
  0.82792025E+00  0.99570942E+00  0.14345108E-01
  0.81793585E+00  0.16593013E+00  0.98104525E+00
  0.81821510E+00  0.32572062E+00  0.28040048E-01
  0.82058595E+00  0.49609715E+00  0.23225702E-01
  0.82117549E+00  0.66124306E+00  0.23731269E-01
  0.82441077E+00  0.83065088E+00  0.42187587E-01
  0.94729758E+00  0.76707625E-01  0.97072261E+00
  0.94455996E+00  0.24499019E+00  0.35660155E-02
  0.94120156E+00  0.41268639E+00  0.29614359E-01
  0.94627871E+00  0.58310373E+00  0.27124856E-01
  0.94318979E+00  0.74805718E+00  0.50559641E-01
  0.94355131E+00  0.91186427E+00  0.60982371E-01
  0.51445274E-01  0.42517728E-01  0.78909259E+00
  0.12832048E+00  0.43705388E+00  0.36071898E+00
  0.53537394E+00  0.19807573E+00  0.68600933E+00
  0.62747646E+00  0.92468452E+00  0.22443767E+00