AlNAl                            
   1.00000000000000     
    17.3520000000000003    0.0000000000000000    0.0000000000000000
     0.0000000000000000   15.0272728064999992    0.0000000000000000
     0.0000000000000000    0.0000000000000000   10.6393173196999999
    N    Al
    48   176
Direct
  0.0682662505192967  0.9961455648072725  0.9798284740730516
  0.0682035235987115  0.1575092385659673  0.0160395951131987
  0.0656686580216116  0.3267709868600592  0.0460541774512550
  0.0661642063528833  0.4993074125220098  0.9915433740824486
  0.0693354397553967  0.6700781032641445  0.9918649041248176
  0.0712838503535815  0.8312575427249763  0.0167353659616259
  0.1950761741476728  0.0795373755793936  0.9722696548385710
  0.1943536966595612  0.2405129738545347  0.0212857434799251
  0.1886746129828847  0.4090259575372169  0.0234653302237943
  0.1893169341607440  0.5775678706820858  0.9595306649557903
  0.1924704499871048  0.7477072849087103  0.9804787282253803
  0.1945362372004534  0.9117517436127903  0.0129505402969494
  0.3167575011077395  0.9989849679674181  0.9902190783636373
  0.3185970534305145  0.1681709351042640  0.0320733575966844
  0.3165925749676350  0.3315997703552301  0.0178836892403521
  0.3156526670091874  0.4966544270897014  0.0177873020614446
  0.3159980533118028  0.6661051163035046  0.0038215397043127
  0.3169080020908865  0.8327394629556815  0.9813249545794526
  0.4414184028803418  0.0838112401143223  0.9809443299901739
  0.4389361681669829  0.2523088850598518  0.9810165422398200
  0.4357664163513055  0.4162983033889566  0.9828894519065730
  0.4462083017827424  0.5777273329332852  0.0256769078018637
  0.4398426141625055  0.7431749235252755  0.0090490577878632
  0.4365327317265895  0.9122670444880741  0.9965437036606057
  0.5648350255346737  0.9986293771768965  0.0019574704425652
  0.5691104949909458  0.1683328717327984  0.9573350164178704
  0.5617950821560098  0.3364226238801874  0.0081725931724525
  0.5653892978143086  0.5008697033610413  0.9852249115463075
  0.5657109744110241  0.6635919500984246  0.9501333284944481
  0.5609627981962385  0.8283664882177958  0.9780871359667024
  0.6891012666315176  0.0819587405050535  0.0493995489749670
  0.6868245269537595  0.2480781867814396  0.9980668064766439
  0.6904300193074244  0.4204139077702891  0.0006654029927417
  0.6956570655808033  0.5865248870197988  0.9991662600954229
  0.6920109360220014  0.7538132433982874  0.9915140565086525
  0.6904140176505775  0.9184511747974354  0.9769977040932485
  0.8155552675730479  0.0012166470597651  0.0284657743657700
  0.8154380197842989  0.1638481227501490  0.0082018014674107
  0.8205424358404108  0.3291571820087104  0.0238612851054808
  0.8202623507484557  0.5024210448601770  0.0311173840307028
  0.8222815290397856  0.6706857930673557  0.0215883583050716
  0.8132847474762571  0.8373408761783044  0.0148321659216786
  0.9409294905672568  0.0816674543019641  0.9938149435501865
  0.9398280433479697  0.2482238399057455  0.9891568530758847
  0.9437852026012046  0.4193873420861666  0.9891631992174897
  0.9442074092088973  0.5876380139851692  0.9733815751182932
  0.9442046909953526  0.7532137871394347  0.0215582582483816
  0.9440323250739070  0.9144977257009483  0.9781429376121924
  0.0715168109605690  0.0245301561264820  0.7417094478125967
  0.1230694220167317  0.3833139450659410  0.3566537671447153
  0.5364811499394868  0.2147925561679371  0.7096594376328919
  0.6505371787943981  0.8941554937463254  0.2324205459740789
  0.6991655054972413  0.2720593965178673  0.7837438871344782
  0.0088824168658332  0.2009791531981782  0.7031486747759391
  0.5683439884898379  0.8226055419664268  0.4469502406678791
  0.3617288088348775  0.1455150858971954  0.7282047583692828
  0.9233673833892668  0.0535918443768947  0.7195946545459662
  0.7871711291665100  0.1561007031740411  0.2853094513491959
  0.4383163217113942  0.5539197823198970  0.7294775414285749
  0.0588142165175260  0.7510147972934338  0.5188246902777774
  0.9072410678536739  0.5379403247970920  0.7021985054123935
  0.1742163778000704  0.5543189003967554  0.2466317888270475
  0.4684277813570030  0.6021671671702494  0.2148297916196222
  0.8103994012635420  0.3949528990977680  0.7145760478335742
  0.6081755896205381  0.4176142534878217  0.3410911615415666
  0.6594992241394794  0.9487610803636480  0.8192811885647807
  0.9414488733605033  0.8133599956136223  0.3740210222654548
  0.2214316902607979  0.3403118130087099  0.5787919401976912
  0.4175544417952156  0.7144609932205351  0.7467031429785965
  0.1939749550693244  0.9420388288367848  0.6550443896277510
  0.6821706619324612  0.4406229703286957  0.8116869060163838
  0.0514722969778920  0.6941250314105978  0.2929524736216174
  0.8275542914204893  0.8320348193009324  0.7743724579430572
  0.5643222288508816  0.5910213680145249  0.3727782244564737
  0.7556528889121977  0.5569559136863368  0.7000522720909187
  0.3198709730933778  0.1910196478167264  0.2313395848123043
  0.3464181521781676  0.2669540235061044  0.5780524761615786
  0.4424163808177211  0.0474962546837706  0.5401639249275356
  0.5613509507174589  0.3744338226548046  0.7680557187166380
  0.5488225367725367  0.2663799112672810  0.3037973599186929
  0.9222941880037593  0.9605206105002490  0.2384543409998617
  0.7260464705981630  0.8206666946051840  0.3719084676526750
  0.2848517374546347  0.4466183952229514  0.7484174109458508
  0.4632870669680785  0.7509461700038650  0.3297013263409299
  0.8447732915032289  0.0460260127079911  0.4520995116600249
  0.4880476321918505  0.3099356303991209  0.5105219939554811
  0.4279216603030375  0.3276686272945820  0.7591180599884025
  0.5086336333529161  0.6834658392163850  0.5683844579004360
  0.8657564161683868  0.3123539653001957  0.2050457809303227
  0.4947762324835744  0.0938831715846119  0.2495356889505958
  0.4343061754775417  0.8886332725309894  0.7228664021462474
  0.9473594378021557  0.7688077476968882  0.6379920056690324
  0.8438864929204326  0.6795022153600562  0.7766511677509131
  0.9223946545854551  0.2393021111024274  0.4634292861634197
  0.8010743411641064  0.1299439163456769  0.8157948677841882
  0.5637132405443991  0.9923673812158811  0.4124295944890072
  0.6963667227008510  0.8271507918879398  0.6451387164228513
  0.1767468490867858  0.5660458928890717  0.7304400079166214
  0.7941222534204195  0.9813378573843597  0.6995022094831068
  0.5871236763726586  0.7354502546460474  0.2299657400330766
  0.4945831290226853  0.9260126423781438  0.2044642177252838
  0.2949140475528253  0.6422791622725875  0.6724329873449507
  0.4768818357648094  0.0635512844749265  0.7729915628006028
  0.3324656677721696  0.8541742277113664  0.2787662672949902
  0.7411845653872996  0.1783267876386908  0.5300681760481729
  0.4648645216858680  0.4405157728612535  0.3250832069565014
  0.7043705994392427  0.0034527122536680  0.5099056659767800
  0.5449669678406578  0.7813312326575486  0.7669702256349350
  0.6517434105264361  0.1069660026797255  0.2819106706127063
  0.2167434390947519  0.1215844268773612  0.7890780193792262
  0.9284354734201813  0.1573123449782097  0.2552907114587595
  0.9568581471058579  0.6249130491498057  0.4862669631081356
  0.0740633811630756  0.8649404591021025  0.3367265585857143
  0.6862437267196679  0.4670212279533286  0.5454721116005021
  0.2451119049944334  0.3716146884578865  0.1993673359532522
  0.5957145436733988  0.6092245705449834  0.7250985392729802
  0.6774551252348987  0.6478435698561877  0.5270231913576822
  0.2803716938283839  0.0973680161826361  0.5330402102588120
  0.8145022457096827  0.7120069249469558  0.5418925114830641
  0.0372945474907627  0.6465953882251916  0.7624047504638209
  0.4113659089519818  0.5884260054421349  0.4483284315968204
  0.0054117361124788  0.9256585636930458  0.5600107527518181
  0.4128121140700684  0.1854966094635876  0.3993189967892066
  0.2905040683551426  0.8161729941304053  0.7066867604963610
  0.7412703658691225  0.4568605990105170  0.2434688266937150
  0.0793412241782568  0.2173490646669886  0.2980548277117922
  0.1356399178554012  0.1495532225947381  0.5746227026427737
  0.6670980456568073  0.0967598878964976  0.7297403093988769
  0.0314573927252649  0.5349408329437824  0.2219704719653599
  0.7403801112419039  0.6702172187109723  0.2821620010180418
  0.9500010404242334  0.3694904261141380  0.8050433900087605
  0.2694744936448127  0.2841012379032208  0.7777454436745400
  0.7906029926768716  0.3569527685892864  0.4670378726674914
  0.2022528379776875  0.8122046653511268  0.4898969916903710
  0.3323743814380836  0.3585741788861382  0.4060160447315166
  0.7001313320862406  0.7179339584054618  0.8078225289065362
  0.5327567668352383  0.4874358933126396  0.5620361541193314
  0.6961542735537679  0.2952670735280810  0.2389202546618570
  0.5638148829281456  0.9255224125476937  0.6537960052988467
  0.9822159361577607  0.3656267867330664  0.3258037470012849
  0.8632147417920343  0.2484575140674408  0.6803680098483227
  0.9186094506236386  0.4248440711714460  0.5119241771513160
  0.0529333179633418  0.3127439225624219  0.5337280058460092
  0.2107976860836052  0.2380290977651147  0.3805013657986128
  0.3627488771182056  0.7516068135419726  0.5159061537343490
  0.3226786984512839  0.9801566620916010  0.7300781247943854
  0.5830627305421383  0.1433647539059881  0.4861226675864873
  0.2430214020686275  0.6512633613703871  0.4309651847711039
  0.8510093116723760  0.8801992061132816  0.5190281201493019
  0.1641121291082584  0.7179702214317275  0.6589679745440368
  0.8298927809208004  0.8224787485481889  0.2104262944822512
  0.7943109496060179  0.5520423187775381  0.4573340521504256
  0.0720698780135417  0.8557960538038015  0.7340613976837251
  0.6465907319634674  0.5849234125733559  0.1804039600027449
  0.3932539697699851  0.4495930465709954  0.5843230905387805
  0.3291571020569000  0.6900736843438825  0.2214553740130929
  0.9434584419220139  0.9153520238972978  0.8087634187575465
  0.3475050064979280  0.0314186405561818  0.2777492420577212
  0.1068819450853228  0.5469312413832673  0.4527488339114651
  0.2079046767173461  0.9335152089197645  0.2957803726679962
  0.7793411536299700  0.9725074950796725  0.2609058348747368
  0.0635384710849256  0.0295534002297295  0.2141364267158731
  0.1871113787722227  0.1087221303041335  0.2237046116765632
  0.8855447106384241  0.5026074202583667  0.2930978535791980
  0.0547600583955869  0.4702986475188819  0.6884058651350312
  0.1053915397676403  0.3276810708418031  0.7688656328972594
  0.3314062920481483  0.5232026985531059  0.2408774270612319
  0.9030701700681470  0.6722092601346583  0.2550038406998094
  0.3069223296777907  0.9522671616540942  0.4751177710808865
  0.1487721438043557  0.0125578578275564  0.4665712823619941
  0.1783099626459329  0.7628839992368285  0.2495818768140499
  0.6342610440492967  0.3180683435258240  0.5480542014227264
  0.0154432875950477  0.0841397870017445  0.4553814373910958
  0.4366915195772146  0.8915234663850498  0.4474463505514777
  0.2638782023640224  0.4949021919791139  0.4783966011028095
  0.4140813233556615  0.3014307805157139  0.1946378235525656
  0.9849839219614094  0.0005118310189125  0.0061461881826359
  0.9842942047502808  0.1642239931057640  0.0054734339982768
  0.9794609834394324  0.3309522702742019  0.0277115225631101
  0.9843262181171287  0.5041504510014536  0.9892711025690141
  0.9861942221792770  0.6702614478549890  0.9924654183253723
  0.9892061870916560  0.8317716727528628  0.9988142505390001
  0.1092827437775877  0.0802948254291145  0.9574900483588974
  0.1109685558187028  0.2393902457430354  0.0364905915908662
  0.1051665589070850  0.4119841083188917  0.0237033838938124
  0.1077537440084811  0.5815841074700898  0.9842092898440363
  0.1116485529954804  0.7504529423226244  0.0245049057655451
  0.1119278123848857  0.9154461559073661  0.0015559822153314
  0.2326672818624683  0.9937892471388717  0.9844444077816455
  0.2348571561987395  0.1566872252090628  0.0639702359634143
  0.2300846701348757  0.3238547281734856  0.9919737589190977
  0.2320775287997265  0.4930613965348213  0.9848774263971618
  0.2318815446405170  0.6615377590268314  0.9839517184498427
  0.2342243223381158  0.8297709474598075  0.9914121696562901
  0.3570341231889840  0.0838303758527417  0.0113929856445007
  0.3537332696741320  0.2493646412408245  0.9647528671456179
  0.3559941226868203  0.4143646871280947  0.0007777796848177
  0.3567904794769652  0.5811569749421738  0.0499949372011961
  0.3581612655665816  0.7469145103626996  0.9921343871627277
  0.3557411266285571  0.9148422438757092  0.9899906570112513
  0.4786573938186817  0.9981528642243279  0.0154109911423658
  0.4842512128181125  0.1675649222047219  0.9552439791500714
  0.4787923387329678  0.3346719937014588  0.9926041951460175
  0.4832472637430958  0.4973735627703729  0.9861372530058221
  0.4860217261004560  0.6596941515645407  0.9851155463613075
  0.4770323980674510  0.8289840708446621  0.0066813638785379
  0.6022222507972864  0.0876732207685540  0.0228969257433475
  0.6026462032947034  0.2551419086618366  0.9822796433005212
  0.6054433884092465  0.4178656973687196  0.9879844545445945
  0.6132539535194628  0.5784616757004274  0.9394180598290583
  0.6049652161430150  0.7436683786905602  0.0249763923928681
  0.6057527329211185  0.9122232251280469  0.0155889619472156
  0.7318668760733271  0.0050193465223305  0.0157286672483000
  0.7341923616503735  0.1673110114768840  0.0550506504802276
  0.7320484077062300  0.3324774925856062  0.0315268792713102
  0.7360474888638722  0.5040673390879505  0.0215911068172796
  0.7376248967438926  0.6692062853657472  0.0233127020988543
  0.7333276043192499  0.8343360726981947  0.9686856542610951
  0.8572854465234904  0.0799139918687297  0.0181329751577869
  0.8580200573015678  0.2469212279509581  0.9870615399499194
  0.8591077142633917  0.4176505448081073  0.0102513514258177
  0.8631162712781896  0.5863748740813820  0.0081023923614071
  0.8614489971876154  0.7523047204837666  0.9858732463562352
  0.8600385981605789  0.9172325789298712  0.0364997209458666
