undoped                                 
   1.0000000000000000     
    17.3520000000000003    0.0000000000000000    0.0000000000000000
     0.0000000000000000   15.0272728064999992    0.0000000000000000
     0.0000000000000000    0.0000000000000000   10.6393173196999999
   B    N    Al
    48    48   128
Direct
  0.9845911051824434  0.9859061414618632  0.9991916268661901
  0.9889023597738865  0.1621382430780443  0.9779707374476941
  0.9876213257396912  0.3288290072161280  0.0333597390915801
  0.9855363958456076  0.4973554352039212  0.0281084499381358
  0.9854954344988393  0.6673301367054976  0.0161896813225254
  0.9815405004176098  0.8316721342649857  0.0546725876360419
  0.1092721527281301  0.0839256626577812  0.0106172893319712
  0.1138746012795382  0.2440278113561489  0.0044654832233497
  0.1080786015313745  0.4119170937213792  0.0011556424014265
  0.1116851765421560  0.5834342877972546  0.9892045930504406
  0.1090007832684721  0.7480650554940850  0.0154244482385979
  0.1076983904119890  0.9151055878585312  0.0130081413195360
  0.2320631022863315  0.0029067805400879  0.0347225365055027
  0.2357762630965816  0.1645174758137277  0.9619499483049917
  0.2368416323702605  0.3289127407467844  0.9791222566225548
  0.2329529182587834  0.4984578484966568  0.9856231400392368
  0.2386752859510380  0.6703400364809639  0.0148203629098083
  0.2353057310282467  0.8361913074733479  0.0260286625925504
  0.3612075186472558  0.0863914065831668  0.9758333346400045
  0.3642168574013264  0.2525916586144836  0.0405941826397656
  0.3577157355082179  0.4265558392266066  0.0162694055413906
  0.3604375361069795  0.5895068343442131  0.9622148319267954
  0.3580385422923623  0.7550538445424996  0.9912012575678301
  0.3598921154119205  0.9252931592439473  0.0266897811485840
  0.4863283098352830  0.0053280266161248  0.9781398439591811
  0.4864275792299286  0.1713801317916825  0.0339963000211767
  0.4884738968329921  0.3363678346138642  0.0262586053914190
  0.4876902713629458  0.5049516178950253  0.9855900059432756
  0.4905295827968505  0.6751608102701577  0.9662932358153798
  0.4840235249973588  0.8398090036933292  0.9659043625673872
  0.6155569124456631  0.0929104812298287  0.0120941746455928
  0.6111384542613170  0.2558210691082881  0.0440308343110075
  0.6099681379614198  0.4177741175997616  0.9904742087644937
  0.6117363052591180  0.5913822358626697  0.9528749449809355
  0.6121920740400274  0.7563667704399112  0.0253996705051164
  0.6113347835325089  0.9320748427088995  0.0118470659624214
  0.7434067191516840  0.0076295024045560  0.0308818928380030
  0.7332443122393091  0.1698570263100863  0.9650469357313015
  0.7337387600045499  0.3274072431001636  0.0222331522974726
  0.7358569696723820  0.4976361410302609  0.0131664575542107
  0.7370643544114922  0.6674366745136743  0.0080815190928880
  0.7418106974041415  0.8362441864460938  0.0078950885020071
  0.8635559632921785  0.0786027871124936  0.9674067711990970
  0.8621495868019080  0.2454958285430176  0.0063420160448435
  0.8584131151915053  0.4093650311063591  0.0185459543874777
  0.8638696143327118  0.5776938704068869  0.0142835189919652
  0.8620400854427270  0.7446603843008448  0.0508899815811332
  0.8636567230401563  0.9125707175369375  0.0231302865857417
  0.0663625348063446  0.0003141467853252  0.0332055507571426
  0.0722337095556222  0.1636944988414710  0.9884147119530352
  0.0677004758681335  0.3280805970954607  0.0025146965470849
  0.0696071745942303  0.4955223674637000  0.9953624589599124
  0.0654538614878678  0.6711553553328072  0.9643924964879399
  0.0655932708220957  0.8304594835490094  0.0356877075871856
  0.1906031743442675  0.0834364929652561  0.0194226947443789
  0.1945461707556744  0.2435585996312246  0.0213907994321759
  0.1927115748632559  0.4139886076980188  0.0095115868295854
  0.1955856359245101  0.5859429076662815  0.0092299856791281
  0.1925076993730686  0.7522903170916473  0.0084323788756395
  0.1922056231871434  0.9195244342072407  0.0198884344824118
  0.3166871305429036  0.0124067362362195  0.0320613336777577
  0.3228799403048301  0.1721899642973757  0.9659705638804138
  0.3250861692407970  0.3366390050649536  0.0099636349280573
  0.3158292404114111  0.5051047133694564  0.9816510467591647
  0.3177153312446922  0.6716673382880112  0.9768911794899038
  0.3211456924310496  0.8376334319481819  0.0191541591671866
  0.4425312527750073  0.0892178474650747  0.9971853788574929
  0.4449631793424370  0.2538099919251821  0.9907975072322207
  0.4404669176051184  0.4172818933283761  0.0153642833798718
  0.4455402982423227  0.5899659078022972  0.9706124254993718
  0.4415107671228011  0.7528801685889999  0.9495756188435175
  0.4458248554268210  0.9225311110209259  0.0084283469162755
  0.5710034855497624  0.0122093169281868  0.9934691605194524
  0.5710733054738663  0.1726647766694421  0.0225990627439650
  0.5691234420369403  0.3340837234219826  0.9945266092446482
  0.5697522574391466  0.5031607673125381  0.0225893629246774
  0.5714765815276207  0.6723387527923934  0.0023778331049866
  0.5713437489107465  0.8421017450658749  0.9801234420497399
  0.6975721756269524  0.0834627620585834  0.0013154966686287
  0.6933135181630247  0.2492960376166200  0.0149045514955647
  0.6940846192332837  0.4112336230999274  0.0065758139883663
  0.6936416580490010  0.5818700781268841  0.9952635205500372
  0.6977546323012874  0.7521927997066207  0.9929972425389719
  0.6961245181319274  0.9200526437898831  0.0286620037660034
  0.8276939366249204  0.9958866012765422  0.0140016707950705
  0.8183422250246011  0.1661755106695460  0.9814070968630213
  0.8175754303004743  0.3265043685398178  0.0271923139802383
  0.8202049097017766  0.4962824682082536  0.0228680147426396
  0.8213852354005521  0.6609421582830329  0.0218578121506304
  0.8245380902305847  0.8311654819383667  0.0416869909016505
  0.9469145200216244  0.0763798464931241  0.9710952009276441
  0.9444506321930587  0.2453055706506160  0.0038485982863941
  0.9412593150813633  0.4127350780830285  0.0301185733590211
  0.9463744326138024  0.5817410297258448  0.0269758735630122
  0.9429222022235136  0.7471374218685536  0.0489756389910514
  0.9430457485589805  0.9109960845951063  0.0620802225166665
  0.0525293213989107  0.0428034460912619  0.7893997247512803
  0.1282894021964446  0.4368036063594828  0.3594953757218433
  0.5360641241901677  0.1980035612013203  0.6858521936400289
  0.6271807078063032  0.9251081507006866  0.2242281390633603
  0.6676373563868723  0.2506167405992668  0.7406404447993566
  0.0217563855059731  0.2276412702452323  0.7160088657803982
  0.5849506446468965  0.8195678674958221  0.4643968603095638
  0.3576053740133225  0.1678782497142308  0.7667749976116455
  0.9258920947007800  0.1110754094676558  0.6732457324548137
  0.8023591675495545  0.1754454107253328  0.3095530773926445
  0.4621985620952958  0.5114271464070912  0.7697680298406894
  0.0511910627331277  0.7676857354900199  0.5231566304819731
  0.9113429200867680  0.5478345052609898  0.6736914807263177
  0.1898718531256682  0.5813301517162144  0.2249221230410070
  0.4560058892866936  0.5633955847013810  0.1615725895312067
  0.8202451935415492  0.3982427945388361  0.7574661430293871
  0.6153480578753313  0.4079324862255131  0.3067891296794731
  0.6940396286008383  0.9211086946907519  0.8463010216093094
  0.9397476501043173  0.8044086919272431  0.3708760941700051
  0.1907458606559176  0.3519624066055335  0.5704010358427940
  0.4111170833009979  0.7115565035589416  0.7569342984331316
  0.1829080170558684  0.9585936155637551  0.7012760843097289
  0.6834540970354529  0.4256245119693087  0.8127020460869943
  0.0850299047876182  0.6740818050029128  0.2939539912501553
  0.7911514587934574  0.8301440279116507  0.7617594108071880
  0.5720214899197527  0.5710294283469083  0.3490204535893885
  0.7521841711882203  0.5618147164198506  0.6855055572010451
  0.3173342402910392  0.1726187568173348  0.2073139603504217
  0.3340545309991678  0.3009444853134984  0.5918231629589245
  0.4496129412285737  0.0367297806320174  0.5515380303912988
  0.5644748797172573  0.3616471942170728  0.7417257058219900
  0.5679049966126138  0.2594910418911939  0.2853908454348609
  0.9290834639481971  0.9727798902761370  0.2803495816515590
  0.7267892323544227  0.8252757703433797  0.4190696011414886
  0.3386831894630319  0.4840628045383056  0.7646621567901938
  0.4539599387174351  0.7267694369205876  0.2513750182876425
  0.8646394022523538  0.0461234717417734  0.4729813079978911
  0.4972399318340499  0.3194265241149317  0.5342437160412633
  0.3947429058142657  0.3487858904427401  0.8473353962404414
  0.5064659545615009  0.6894648577522422  0.5307198490067605
  0.8359511245970380  0.3393238488631731  0.2980688379620734
  0.4826881428800044  0.1045730186619490  0.2100867203441994
  0.4258750110509826  0.8710877171630552  0.6903273106381738
  0.9276677604520019  0.7392254607062410  0.7145811184471786
  0.8518884600767422  0.6374899980466429  0.8194249394017409
  0.9111601207322435  0.2001857944702979  0.4553295329313892
  0.7817570900902893  0.1405789089114671  0.7800439426000967
  0.5444014614400230  0.9741245903075764  0.3686027669520670
  0.6778812906142780  0.8432080000252544  0.6472611695281787
  0.1903927279646776  0.5137326836527070  0.7528904697569017
  0.7873055712032707  0.0097063769494878  0.6760997357948360
  0.6207315019067891  0.7207613279369688  0.2388136589386940
  0.4723905561537227  0.8849821521499542  0.2207439762390058
  0.3145994955193439  0.6073131208552035  0.6091482370846588
  0.4995472045336618  0.0472727412630217  0.7965629499130128
  0.3422036855731510  0.8388230570472924  0.2737673615822244
  0.7553275881619501  0.1703407321021292  0.5529072240849612
  0.4620448869772709  0.4181312239886699  0.2886780190314127
  0.6902956867309390  0.9971318113459563  0.4756613047661550
  0.5810314905903722  0.8093761909558257  0.7942452405105702
  0.6275813415478428  0.1065518424942408  0.2548423768226473
  0.1906322163569857  0.1128407115134903  0.7779903681591104
  0.9381940918608678  0.1311053923588122  0.2082257598852786
  0.9423848221778746  0.6276761200613344  0.4898181489120828
  0.0735174983690194  0.8734887289424607  0.2721494564246158
  0.6616573064780954  0.4654034505435882  0.5346186541681081
  0.2231798241757981  0.4017203577547040  0.1767168765272864
  0.5944339403214968  0.5866890397138079  0.7357667720596134
  0.6476955443853781  0.6590172023580438  0.5306921690947889
  0.2860044958856836  0.1565835280727398  0.4800601233430663
  0.8034824092103520  0.7018487810840169  0.5509403408768305
  0.0449052258872119  0.6543194421198155  0.7801871638219197
  0.4098792194837638  0.5874341794065329  0.4219099364571844
  0.9918754442659699  0.9283095331378886  0.5066723664257264
  0.4252005562534026  0.1795095556505837  0.4377012317616065
  0.2744550645135944  0.8072363271148283  0.6687260906620262
  0.7496283687393931  0.4740139382020904  0.2462530404675821
  0.0484138656636241  0.2083238567477578  0.3266404216688417
  0.1434738124714895  0.1986465568990470  0.5693515164391482
  0.6423406151217168  0.0956861443133326  0.6615839248251381
  0.0392560487062495  0.5313967865174231  0.2811553180580941
  0.7740233495865340  0.6884600557526361  0.2500586268128241
  0.9721816524366169  0.3670771057475704  0.7696030487491019
  0.2579639090938480  0.2931575969850935  0.7884180802261039
  0.7846701718526644  0.3349015812303007  0.5090511606253627
  0.1886995696520030  0.8522193010030581  0.4717044649388575
  0.3313172522577993  0.3312133375880719  0.3180357689421571
  0.7025578922964543  0.6993526531950017  0.7646128807704452
  0.5196923120933583  0.4962114730738760  0.5772342178370892
  0.6931400435738060  0.2796261139431528  0.2476176325530333
  0.5712815286460338  0.9649577721307934  0.6323201812280177
  0.9942809932447411  0.3505692835854193  0.2801623079173087
  0.8704390572677090  0.2618638544315935  0.6980027690326892
  0.9329783793497087  0.3945271340710358  0.5376751683019311
  0.0523592974155784  0.3392955014493324  0.5062856545107459
  0.1987918988014138  0.2666605887369715  0.3458202660115712
  0.3588415014247091  0.7490547942410306  0.4643897808276096
  0.3221515758984959  0.0075836195901216  0.7652169739619482
  0.5663101637816482  0.1509345995844584  0.4598152051471210
  0.2132406372053184  0.6707783051221391  0.4356809585302233
  0.8495880313558416  0.8855705578052071  0.5544537210122785
  0.1816475272472898  0.6862723253177653  0.6533885190844749
  0.8115897776977248  0.8510818541123034  0.2495993866166173
  0.7885556026611894  0.5529056989860727  0.4626996376125084
  0.0926522441844246  0.8168610948805433  0.7414284767609450
  0.6136737198359680  0.5435110214547751  0.1572132593431802
  0.3689618519642942  0.4454629302639007  0.5300205010657753
  0.3212875721167442  0.6551717377674007  0.2526369791373849
  0.9447412149847204  0.9095817527283033  0.7472324083183383
  0.3552746647576818  0.0050743642525148  0.2232385046098541
  0.0970574795815222  0.5754577762069315  0.5189926582664527
  0.2154376242055278  0.9318929363412034  0.2336952799518104
  0.7627879911081181  0.0174390143720180  0.2730699052988552
  0.0624084937607242  0.0369222718297788  0.2586611663087445
  0.1960111326958477  0.0918622982892322  0.2845290787876866
  0.8905081829843862  0.4962648939233760  0.2967870428984489
  0.0571448295305951  0.4901776426763323  0.6880387199306773
  0.1290380287727456  0.3242825510415101  0.8059871995930484
  0.3226901843009508  0.4998191458477382  0.2962202273171636
  0.9261798066960368  0.6625493674196810  0.2301261276828523
  0.3069056259285730  0.9525487087575411  0.5299283129643341
  0.1334164144161086  0.0004848537231248  0.4739988844459419
  0.2140412539013599  0.7676251445104139  0.2238555049005221
  0.6437548154030952  0.2802557463194888  0.4959384045607687
  0.0116610246962238  0.0940135494359519  0.5014558871067977
  0.4425494093908875  0.8871121046841530  0.4556663662925233
  0.2417894924584507  0.4893029345422309  0.5276244455089681
  0.4378494796243477  0.2577934848214332  0.1951501000440554

  0.97844894E-02  0.50725408E-02  0.10777761E-01
  0.63238746E-02  0.50398253E-02  0.34221902E-02
  0.13034171E-02 -0.36132614E-02  0.43869137E-02
 -0.47666178E-02  0.83682520E-02  0.55149524E-02
 -0.51367859E-02  0.18565875E-01 -0.48954891E-02
  0.66589129E-02  0.14302013E-01 -0.72074459E-02
 -0.57358370E-02 -0.39401490E-02  0.14925463E-01
  0.38440208E-02  0.37382852E-05 -0.10418838E-01
 -0.30460423E-02  0.82957531E-02 -0.11784775E-01
 -0.75483908E-02  0.34858006E-02  0.15714156E-01
  0.16964433E-02  0.40415160E-03 -0.31885929E-02
 -0.72048936E-02  0.63144374E-02  0.12867973E-02
  0.56282466E-02  0.64038435E-02 -0.32642449E-02
  0.65368817E-02 -0.33305553E-02  0.17057500E-01
  0.12399115E-01 -0.16045085E-02 -0.42947230E-02
 -0.67601033E-02  0.21640104E-02 -0.68810687E-02
  0.25510438E-02  0.73571497E-02  0.29529007E-03
 -0.12549823E-02  0.19599057E-02 -0.53806714E-02
  0.21299635E-02  0.24287290E-02 -0.49400847E-03
 -0.83071685E-02  0.42257666E-02  0.15144350E-01
 -0.91132687E-02  0.26196236E-02  0.44520440E-02
  0.10213862E-01 -0.71000283E-03 -0.13636208E-01
  0.30124259E-02  0.46968584E-02 -0.82246046E-03
 -0.24837477E-02  0.60233329E-02 -0.23095884E-02
 -0.15705166E-03 -0.19633689E-04  0.24020812E-01
  0.97821611E-02  0.71712865E-02 -0.88069731E-02
  0.31437596E-02  0.18186957E-03 -0.82843328E-03
  0.72177279E-02  0.59593034E-02  0.89599251E-02
 -0.84000861E-02 -0.38771528E-02  0.48475301E-02
 -0.29267894E-02 -0.19371114E-01  0.25391058E-02
  0.91170136E-03 -0.35578753E-02  0.15674740E-02
  0.38727384E-02 -0.10960711E-01  0.15877050E-01
 -0.53519508E-02 -0.54375847E-02 -0.96891246E-02
  0.57176777E-02 -0.40928312E-02  0.42143979E-02
 -0.78173000E-03 -0.32771972E-02  0.14410061E-01
 -0.12772019E-01 -0.11325349E-01 -0.90199720E-02
  0.31893585E-02 -0.82642949E-02 -0.16992670E-01
  0.29990796E-02 -0.85219399E-04  0.84742417E-02
 -0.30348667E-02 -0.50291137E-02 -0.12680897E-01
  0.11793954E-01  0.15107060E-02 -0.11632283E-01
 -0.16362799E-02  0.11200231E-01  0.37054206E-02
  0.49499619E-02  0.10523225E-02 -0.72832460E-02
  0.11253699E-01  0.48596724E-02  0.54483435E-02
 -0.51988981E-02 -0.13474409E-01 -0.51509091E-02
 -0.85333967E-03 -0.85168810E-02 -0.57049830E-02
 -0.84549642E-02  0.38715216E-02  0.11119948E-01
 -0.31404192E-02  0.14042437E-01  0.18915619E-01
  0.22279238E-02 -0.44620758E-02  0.56841428E-02
 -0.42559907E-02  0.42673189E-02  0.91688209E-02
  0.67980568E-02 -0.42363820E-02  0.17027916E-01
  0.34182658E-02 -0.28134196E-03 -0.18281645E-02
 -0.40375508E-02  0.61388793E-02  0.75435004E-02
  0.34858579E-02 -0.20915484E-02  0.22431071E-01
  0.17933187E-03  0.10663175E-01 -0.22049155E-02
 -0.72005420E-02 -0.87516482E-03 -0.22097216E-02
 -0.23887227E-03 -0.94520122E-02 -0.18268113E-01
  0.34310537E-02  0.37484330E-02 -0.18691518E-01
 -0.40463602E-02  0.15021016E-02  0.20634226E-02
 -0.73637749E-02  0.37158247E-02 -0.29197362E-02
 -0.83942834E-02  0.71132458E-02  0.88730521E-02
  0.20743101E-02  0.10630820E-02  0.15157277E-03
  0.16221849E-02  0.28826444E-02 -0.95663296E-02
  0.21679543E-02  0.84310577E-02  0.11259527E-01
 -0.62671747E-02  0.45102744E-03 -0.12915263E-01
  0.81590936E-02 -0.17951302E-02 -0.43277883E-02
 -0.10270509E-02 -0.46920292E-02  0.13272521E-01
  0.18292749E-02  0.19732754E-02  0.62457799E-02
 -0.19387966E-02 -0.51112655E-02  0.10459989E-01
  0.71828903E-02  0.57149956E-02  0.62025295E-02
  0.41472154E-02  0.45375927E-02 -0.23731317E-02
 -0.27835097E-02 -0.14822805E-01 -0.67926843E-02
 -0.79842978E-02 -0.47010360E-02 -0.12700771E-01
 -0.42544456E-02 -0.78557759E-02 -0.74460304E-02
  0.74282948E-02  0.48870818E-02 -0.15377579E-01
  0.40747484E-02 -0.87741469E-02  0.19303067E-01
  0.31910459E-02 -0.50757595E-02 -0.74031549E-02
  0.38678347E-02 -0.67541101E-02  0.15836577E-02
 -0.11176313E-01 -0.28444082E-02  0.42882454E-02
  0.94556777E-03 -0.46395721E-02 -0.91063816E-02
 -0.15286621E-02 -0.32810364E-02  0.28937486E-02
  0.95930545E-02  0.40010187E-02  0.53994401E-02
  0.41522578E-02 -0.12882292E-02  0.52024828E-02
  0.17353428E-02 -0.42717431E-02  0.90791636E-02
  0.27830622E-02 -0.29723301E-02  0.29115097E-02
  0.40327566E-02 -0.28863588E-02  0.36150487E-02
 -0.67862571E-02 -0.30519884E-02 -0.34000780E-02
  0.10104113E-01 -0.10861350E-01  0.83476604E-02
  0.61955244E-02 -0.24168851E-02  0.35799431E-02
 -0.32749316E-02  0.38951180E-02  0.18359692E-01
 -0.15706388E-02 -0.70655049E-02  0.48009023E-02
  0.60244222E-02  0.45097400E-02 -0.37566718E-02
  0.15379184E-02 -0.42567194E-02 -0.27926110E-02
 -0.12701773E-02 -0.68330092E-03 -0.48190288E-02
 -0.15786098E-02  0.18682607E-01  0.14939040E-02
  0.39267005E-02  0.12766552E-01  0.15454162E-01
  0.80298996E-02  0.11284167E-01 -0.10345695E-01
 -0.17147967E-01 -0.38700500E-02 -0.28632914E-02
  0.27660888E-03  0.35741856E-02  0.11841304E-01
 -0.10717683E-01  0.99783510E-03  0.14349408E-02
  0.44606632E-02 -0.56719239E-02  0.21172614E-02
 -0.65441714E-02  0.32128702E-02 -0.69693681E-02
  0.49499857E-02  0.22458993E-02 -0.10992330E-02
 -0.51446726E-02 -0.60785437E-02 -0.20307578E-01
  0.66177591E-02  0.84496870E-02  0.81149042E-02
 -0.11875645E-01 -0.10269967E-02 -0.49894041E-02
  0.92611150E-02  0.65315731E-03 -0.46377816E-04
  0.19885690E-02 -0.10072735E-01  0.78737820E-03
 -0.44484628E-02  0.20552997E-02  0.28720750E-02
  0.40630975E-02  0.10027690E-01 -0.70883528E-02
 -0.18015899E-02  0.99520602E-02 -0.10829799E-01
 -0.79459183E-02 -0.16461457E-03  0.13858137E-03
  0.42474598E-02  0.52760730E-02  0.23551307E-02
 -0.31895691E-02  0.10160076E-02 -0.78218043E-02
  0.10423610E-01  0.56454110E-02  0.95370721E-02
 -0.19762180E-02 -0.50214239E-02  0.18832129E-03
  0.88837445E-02  0.42104087E-02  0.10222445E-01
  0.52035837E-02 -0.18120322E-02 -0.33751249E-02
 -0.16685766E-02  0.15735442E-02  0.59088458E-02
 -0.12800423E-02  0.23864753E-02 -0.13154497E-01
  0.10804338E-01  0.10118655E-01 -0.46323178E-02
  0.12462519E-01 -0.99724624E-03 -0.23464673E-02
 -0.62129990E-02  0.13482317E-01  0.32807763E-02
 -0.47980732E-02 -0.73964769E-02 -0.84248329E-02
  0.93574948E-02  0.13552895E-03 -0.30727794E-02
 -0.41652745E-02  0.90003041E-02  0.23051259E-02
 -0.14325257E-01 -0.19376900E-02  0.46194120E-02
 -0.75292937E-02  0.27063625E-02 -0.73306784E-02
  0.78830905E-02 -0.13798324E-01  0.25670483E-02
 -0.21403172E-02 -0.54228788E-02  0.11262810E-01
  0.45677772E-02  0.62073525E-03 -0.16312481E-01
  0.41043155E-02  0.72944050E-02  0.16517343E-02
  0.82052138E-02 -0.85979577E-02 -0.13176377E-01
  0.58743265E-02 -0.10639142E-01  0.48810023E-02
  0.87015044E-02  0.33375695E-02 -0.28041908E-04
 -0.16549047E-02 -0.34787421E-02 -0.55246747E-03
 -0.12153801E-01 -0.86222094E-02 -0.44184791E-03
  0.10428101E-01  0.16247561E-01  0.13273009E-01
 -0.69122618E-02 -0.32908805E-02  0.63548817E-02
 -0.32009970E-02 -0.57047157E-03 -0.25755447E-02
 -0.28896446E-02 -0.81617529E-03  0.23646369E-02
 -0.57024206E-02 -0.68233962E-02  0.63571180E-02
 -0.21515578E-02  0.11368564E-01 -0.94662022E-02
 -0.68337353E-03 -0.20203485E-03 -0.20352019E-02
 -0.18664857E-01  0.11641083E-01 -0.34990788E-02
  0.10722840E-01  0.62914832E-02  0.15287549E-01
  0.87981689E-02 -0.10648372E-01  0.14225306E-01
  0.12593228E-02  0.50783259E-02 -0.44257820E-02
  0.13770363E-01  0.94621517E-03  0.68437388E-02
 -0.10358263E-01 -0.77807700E-02 -0.78527347E-03
  0.11709664E-01 -0.57788028E-02  0.42471673E-03
 -0.27324762E-02 -0.29434331E-02  0.46924050E-02
  0.61953031E-02  0.14082131E-03 -0.26330046E-02
  0.26039962E-02 -0.10245263E-01  0.31612057E-02
  0.77242521E-02 -0.83887782E-02 -0.14383684E-03
 -0.25976400E-02 -0.20986372E-03  0.27450107E-02
 -0.64195530E-02  0.73701031E-02 -0.87954868E-02
 -0.12484220E-01  0.66231464E-02 -0.50842588E-02
  0.25607991E-02  0.79982070E-02 -0.14992393E-02
 -0.58212993E-02 -0.19090608E-02 -0.41755912E-02
 -0.51158629E-02 -0.27703011E-02 -0.18799179E-02
  0.91712566E-04 -0.59206868E-02 -0.79906843E-02
  0.75430705E-02 -0.90648323E-02  0.49916850E-02
 -0.26249707E-02 -0.44386822E-03  0.38747887E-02
  0.52621540E-02 -0.50674173E-02 -0.62991270E-02
 -0.33286077E-02  0.10388124E-01 -0.45218890E-02
 -0.33782309E-03  0.28929171E-02 -0.71934617E-02
  0.36576624E-02 -0.42514103E-02  0.27204192E-02
 -0.14020109E-02 -0.51764190E-02  0.84367163E-04
  0.11308537E-01  0.19581378E-03  0.17138756E-02
 -0.34135900E-02  0.14432787E-02 -0.73067247E-02
 -0.68084260E-02  0.45549589E-02 -0.53110364E-02
  0.31671554E-02  0.23945528E-02 -0.10628288E-02
  0.33977801E-02  0.15250071E-03 -0.38948432E-02
  0.80056722E-03  0.27835462E-02  0.39165724E-02
 -0.23461756E-02  0.74923383E-02 -0.54295712E-02
  0.91602428E-03  0.79103430E-02 -0.86633740E-02
 -0.28130332E-03  0.27657173E-02  0.68504110E-02
  0.65818227E-02 -0.57678213E-02  0.33062480E-02
  0.81962337E-02 -0.80990065E-02  0.57382698E-02
  0.72672497E-02 -0.77814331E-03 -0.11552679E-01
 -0.43583496E-02  0.43442807E-02  0.14452813E-01
  0.59993443E-03  0.11155352E-01 -0.22951633E-02
  0.55200082E-02 -0.18912100E-01 -0.95230652E-02
 -0.24119035E-03 -0.54669407E-02 -0.97742307E-02
 -0.10554892E-01  0.10930991E-02  0.94067686E-04
 -0.44642616E-02 -0.96485682E-02 -0.18967398E-02
  0.39871858E-02 -0.10743266E-01 -0.80791858E-02
  0.21681599E-02 -0.13529970E-01 -0.80675003E-02
  0.68469573E-02  0.48991649E-02  0.51913463E-03
 -0.17053634E-01 -0.28879262E-03 -0.69538902E-02
 -0.66257051E-02 -0.45555338E-02 -0.91332076E-02
 -0.12745114E-01  0.10496149E-01 -0.10415912E-01
 -0.46039085E-02  0.13473869E-02  0.90037170E-03
  0.69377046E-02 -0.15159373E-02  0.46733235E-02
 -0.43121817E-03 -0.86905041E-02 -0.55968228E-02
 -0.12112494E-01  0.61782693E-02  0.66265557E-02
 -0.33418147E-03 -0.50495582E-02  0.21558040E-02
  0.10646162E-01 -0.62577623E-02  0.26960333E-02
 -0.68548682E-02  0.42873522E-02  0.11476213E-01
  0.12307097E-02  0.10200595E-01  0.18038607E-01
  0.27773104E-02 -0.13271000E-01  0.34776671E-02
 -0.17689129E-02 -0.38010805E-02  0.58968352E-02
 -0.67566510E-02  0.11157761E-01 -0.11701727E-01
  0.14403304E-02 -0.13046660E-01 -0.53003697E-02
 -0.17035347E-02  0.10802763E-01 -0.10352870E-01
  0.69405022E-02  0.14072563E-02 -0.48522109E-02
 -0.10179571E-01  0.16889399E-01  0.62400462E-02
 -0.36851370E-02 -0.10219696E-01 -0.12672757E-01
  0.11933545E-01  0.62868262E-02 -0.26381044E-02
  0.37812985E-02  0.79773313E-02  0.54000032E-02
 -0.50802112E-02 -0.13804465E-02  0.14484756E-01
 -0.77061720E-03 -0.51141220E-02  0.71076853E-03
 -0.11465481E-01 -0.15059558E-02  0.34645168E-02
 -0.84442446E-02  0.10469549E-01 -0.15159822E-03
  0.12327719E-02 -0.34812560E-02  0.74817729E-02
  0.53483178E-02 -0.54450909E-02 -0.20043185E-02
 -0.39028717E-02  0.10863032E-02  0.94552096E-02
 -0.16205464E-02  0.23557583E-02  0.81152472E-02
 -0.76278358E-03 -0.55402407E-02 -0.83480508E-02
  0.12631416E-01  0.26136206E-02 -0.51813802E-02
  0.31667789E-02 -0.69324787E-03  0.12032775E-01
  0.19697245E-02 -0.23648430E-02 -0.74710004E-03
 -0.75867910E-02 -0.92572906E-03 -0.56485165E-02
 -0.66349219E-02 -0.11281577E-01  0.27683141E-02

           1
  0.54731196234688684     
  0.74622425E+00  0.70911002E-03 -0.24829532E-03  0.00000000E+00
  0.98489972E+00  0.98609089E+00  0.99974606E+00
  0.98910183E+00  0.16232180E+00  0.97814678E+00
  0.98766244E+00  0.32869741E+00  0.33585412E-01
  0.98538605E+00  0.49766022E+00  0.28392152E-01
  0.98533341E+00  0.66800633E+00  0.15937846E-01
  0.98175053E+00  0.83219303E+00  0.54301819E-01
  0.10909123E+00  0.83782158E-01  0.11385091E-01
  0.11399585E+00  0.24402795E+00  0.39295132E-02
  0.10798252E+00  0.41221924E+00  0.54940538E-03
  0.11144709E+00  0.58356124E+00  0.99001297E+00
  0.10905429E+00  0.74807978E+00  0.15260419E-01
  0.10747114E+00  0.91533557E+00  0.13074337E-01
  0.23224063E+00  0.31400165E-02  0.34554616E-01
  0.23598245E+00  0.16439617E+00  0.96282743E+00
  0.23723272E+00  0.32885430E+00  0.97890133E+00
  0.23273969E+00  0.49853666E+00  0.98526916E+00
  0.23875575E+00  0.67060799E+00  0.14835553E-01
  0.23526615E+00  0.83626269E+00  0.25751868E-01
  0.36127470E+00  0.86479864E-01  0.97580792E+00
  0.36395483E+00  0.25274557E+00  0.41373244E-01
  0.35742829E+00  0.42665125E+00  0.16498429E-01
  0.36075970E+00  0.58948098E+00  0.96151335E+00
  0.35813356E+00  0.75522491E+00  0.99115895E+00
  0.35981377E+00  0.92551254E+00  0.26570970E-01
  0.48632336E+00  0.53273115E-02  0.97937553E+00
  0.48673613E+00  0.17164132E+00  0.33543248E-01
  0.48857306E+00  0.33637446E+00  0.26215989E-01
  0.48791793E+00  0.50516866E+00  0.98605093E+00
  0.49026463E+00  0.67501960E+00  0.96654260E+00
  0.48393121E+00  0.83910348E+00  0.96603498E+00
  0.61558567E+00  0.92780899E-01  0.12174809E-01
  0.61126061E+00  0.25542187E+00  0.44847588E-01
  0.60979933E+00  0.41757607E+00  0.98997578E+00
  0.61191665E+00  0.59123317E+00  0.95309174E+00
  0.61216742E+00  0.75624741E+00  0.26140959E-01
  0.61093193E+00  0.93166236E+00  0.11383057E-01
  0.74350732E+00  0.73285065E-02  0.30007749E-01
  0.73333891E+00  0.16985392E+00  0.96548287E+00
  0.73364304E+00  0.32722408E+00  0.21580817E-01
  0.73622897E+00  0.49769116E+00  0.12568065E-01
  0.73701274E+00  0.66784460E+00  0.82721348E-02
  0.74196683E+00  0.83628251E+00  0.75204209E-02
  0.86391092E+00  0.78779782E-01  0.96768705E+00
  0.86198560E+00  0.24500507E+00  0.60770409E-02
  0.85838620E+00  0.40905484E+00  0.18252476E-01
  0.86360293E+00  0.57783488E+00  0.14855556E-01
  0.86194103E+00  0.74517183E+00  0.51863046E-01
  0.86372700E+00  0.91240820E+00  0.23422693E-01
  0.66228294E-01  0.46956785E-03  0.33677217E-01
  0.72448132E-01  0.16354020E+00  0.98929067E+00
  0.67808294E-01  0.32807035E+00  0.24206514E-02
  0.69479823E-01  0.49574595E+00  0.99575051E+00
  0.65563811E-01  0.67107918E+00  0.96554640E+00
  0.65598927E-01  0.83084785E+00  0.35574281E-01
  0.19037606E+00  0.83404618E-01  0.19309021E-01
  0.19453864E+00  0.24321435E+00  0.20451044E-01
  0.19281980E+00  0.41412513E+00  0.85500504E-02
  0.19545801E+00  0.58599762E+00  0.93361331E-02
  0.19227543E+00  0.75242565E+00  0.82821807E-02
  0.19194085E+00  0.91978351E+00  0.20344886E-01
  0.31675256E+00  0.12445455E-01  0.32069131E-01
  0.32293111E+00  0.17229495E+00  0.96547845E+00
  0.32515455E+00  0.33694607E+00  0.10542852E-01
  0.31563156E+00  0.50512114E+00  0.98098665E+00
  0.31797268E+00  0.67160196E+00  0.97666855E+00
  0.32111330E+00  0.83746254E+00  0.19836929E-01
  0.44258895E+00  0.89289717E-01  0.99750668E+00
  0.44490203E+00  0.25362383E+00  0.99133559E+00
  0.44069348E+00  0.41749004E+00  0.15683356E-01
  0.44567111E+00  0.59013117E+00  0.97049035E+00
  0.44142297E+00  0.75234030E+00  0.94922619E+00
  0.44557302E+00  0.92235989E+00  0.77749888E-02
  0.57086929E+00  0.11923200E-01  0.99308612E+00
  0.57130761E+00  0.17284277E+00  0.21808003E-01
  0.56925197E+00  0.33376416E+00  0.99551961E+00
  0.56985291E+00  0.50297590E+00  0.22208527E-01
  0.57159858E+00  0.67209276E+00  0.24593002E-02
  0.57099123E+00  0.84199815E+00  0.98034404E+00
  0.69760200E+00  0.83293783E-01  0.84704259E-03
  0.69326530E+00  0.24917654E+00  0.15053413E-01
  0.69438720E+00  0.41137935E+00  0.68535741E-02
  0.69377263E+00  0.58182316E+00  0.99553115E+00
  0.69780937E+00  0.75203722E+00  0.99346430E+00
  0.69621230E+00  0.91994439E+00  0.28811779E-01
  0.82782114E+00  0.99578148E+00  0.14187638E-01
  0.81812817E+00  0.16606435E+00  0.98123219E+00
  0.81789413E+00  0.32610878E+00  0.27621738E-01
  0.82040033E+00  0.49619444E+00  0.23052176E-01
  0.82128194E+00  0.66108402E+00  0.22802279E-01
  0.82448855E+00  0.83090815E+00  0.41933961E-01
  0.94710454E+00  0.76544097E-01  0.97090195E+00
  0.94449914E+00  0.24515054E+00  0.37049397E-02
  0.94121925E+00  0.41271019E+00  0.29870671E-01
  0.94632464E+00  0.58242147E+00  0.27052724E-01
  0.94304606E+00  0.74760240E+00  0.49770638E-01
  0.94329903E+00  0.91140707E+00  0.61548015E-01
  0.51988445E-01  0.42662494E-01  0.78925243E+00
  0.12829813E+00  0.43693378E+00  0.36010452E+00
  0.53572607E+00  0.19803990E+00  0.68592601E+00
  0.62732140E+00  0.92490157E+00  0.22433706E+00