 AlNSheet 
 1.0000000000000000
    34.2210000000000036    0.0000000000000000    0.0000000000000000
    17.1105000000000018   29.6362553429072726    0.0000000000000000
     0.0000000000000000    0.0000000000000000   32.0000000499999970
 N  Al 
 121 121
Selective Dynamics
Cartesian
  0.0000000000000000  1.7961366874489255 10.0000000000000000  T T T 
  3.1110000000000002  1.7961366874489255 10.0000000000000000  T T T 
  6.2220000000000004  1.7961366874489255 10.0000000000000000  T T T 
  9.3329999999999984  1.7961366874489255 10.0000000000000000  T T T 
 12.4439999999999991  1.7961366874489255 10.0000000000000000  T T T 
 15.5550000000000033  1.7961366874489255 10.0000000000000000  T T T 
 18.6660000000000004  1.7961366874489255 10.0000000000000000  T T T 
 21.7770000000000010  1.7961366874489255 10.0000000000000000  T T T 
 24.8880000000000017  1.7961366874489255 10.0000000000000000  T T T 
 27.9989999999999988  1.7961366874489255 10.0000000000000000  T T T 
 31.1099999999999994  1.7961366874489255 10.0000000000000000  T T T 
  1.5554999999999999  4.4903417186223136 10.0000000000000000  T T T 
  4.6665000000000001  4.4903417186223136 10.0000000000000000  T T T 
  7.7774999999999999  4.4903417186223136 10.0000000000000000  T T T 
 10.8884999999999987  4.4903417186223136 10.0000000000000000  T T T 
 13.9994999999999994  4.4903417186223136 10.0000000000000000  T T T 
 17.1105000000000018  4.4903417186223136 10.0000000000000000  T T T 
 20.2215000000000025  4.4903417186223136 10.0000000000000000  T T T 
 23.3325000000000031  4.4903417186223136 10.0000000000000000  T T T 
 26.4435000000000038  4.4903417186223136 10.0000000000000000  T T T 
 29.5545000000000009  4.4903417186223136 10.0000000000000000  T T T 
 32.6655000000000015  4.4903417186223136 10.0000000000000000  T T T 
  3.1109999999999998  7.1845467497957021 10.0000000000000000  T T T 
  6.2219999999999995  7.1845467497957021 10.0000000000000000  T T T 
  9.3330000000000002  7.1845467497957021 10.0000000000000000  T T T 
 12.4439999999999991  7.1845467497957021 10.0000000000000000  T T T 
 15.5549999999999997  7.1845467497957021 10.0000000000000000  T T T 
 18.6660000000000039  7.1845467497957021 10.0000000000000000  T T T 
 21.7770000000000010  7.1845467497957021 10.0000000000000000  T T T 
 24.8880000000000017  7.1845467497957021 10.0000000000000000  T T T 
 27.9990000000000023  7.1845467497957021 10.0000000000000000  T T T 
 31.1099999999999994  7.1845467497957021 10.0000000000000000  T T T 
 34.2210000000000036  7.1845467497957021 10.0000000000000000  T T T 
  4.6665000000000001  9.8787517809690915 10.0000000000000000  T T T 
  7.7774999999999999  9.8787517809690915 10.0000000000000000  T T T 
 10.8885000000000005  9.8787517809690915 10.0000000000000000  T T T 
 13.9994999999999994  9.8787517809690915 10.0000000000000000  T T T 
 17.1105000000000018  9.8787517809690915 10.0000000000000000  T T T 
 20.2215000000000025  9.8787517809690915 10.0000000000000000  T T T 
 23.3325000000000031  9.8787517809690915 10.0000000000000000  T T T 
 26.4435000000000002  9.8787517809690915 10.0000000000000000  T T T 
 29.5545000000000044  9.8787517809690915 10.0000000000000000  T T T 
 32.6655000000000015  9.8787517809690915 10.0000000000000000  T T T 
 35.7764999999999986  9.8787517809690915 10.0000000000000000  T T T 
  6.2220000000000013 12.5729568121424808 10.0000000000000000  T T T 
  9.3330000000000020 12.5729568121424808 10.0000000000000000  T T T 
 12.4440000000000026 12.5729568121424808 10.0000000000000000  T T T 
 15.5549999999999997 12.5729568121424808 10.0000000000000000  T T T 
 18.6660000000000004 12.5729568121424808 10.0000000000000000  T T T 
 21.7770000000000046 12.5729568121424808 10.0000000000000000  T T T 
 24.8880000000000017 12.5729568121424808 10.0000000000000000  T T T 
 27.9990000000000023 12.5729568121424808 10.0000000000000000  T T T 
 31.1100000000000030 12.5729568121424808 10.0000000000000000  T T T 
 34.2210000000000036 12.5729568121424808 10.0000000000000000  T T T 
 37.3320000000000007 12.5729568121424808 10.0000000000000000  T T T 
  7.7775000000000007 15.2671618433158685 10.0000000000000000  T T T 
 10.8885000000000005 15.2671618433158685 10.0000000000000000  T T T 
 13.9995000000000012 15.2671618433158685 10.0000000000000000  T T T 
 17.1105000000000018 15.2671618433158685 10.0000000000000000  T T T 
 20.2214999999999989 15.2671618433158685 10.0000000000000000  T T T 
 23.3325000000000031 15.2671618433158685 10.0000000000000000  T T T 
 26.4435000000000002 15.2671618433158685 10.0000000000000000  T T T 
 29.5545000000000044 15.2671618433158685 10.0000000000000000  T T T 
 32.6655000000000015 15.2671618433158685 10.0000000000000000  T T T 
 35.7764999999999986 15.2671618433158685 10.0000000000000000  T T T 
 38.8875000000000028 15.2671618433158685 10.0000000000000000  T T T 
  9.3330000000000020 17.9613668744892578 10.0000000000000000  T T T 
 12.4440000000000008 17.9613668744892578 10.0000000000000000  T T T 
 15.5550000000000015 17.9613668744892578 10.0000000000000000  T T T 
 18.6660000000000004 17.9613668744892578 10.0000000000000000  T T T 
 21.7770000000000010 17.9613668744892578 10.0000000000000000  T T T 
 24.8880000000000052 17.9613668744892578 10.0000000000000000  T T T 
 27.9990000000000023 17.9613668744892578 10.0000000000000000  T T T 
 31.1100000000000030 17.9613668744892578 10.0000000000000000  T T T 
 34.2210000000000036 17.9613668744892578 10.0000000000000000  T T T 
 37.3320000000000007 17.9613668744892578 10.0000000000000000  T T T 
 40.4429999999999978 17.9613668744892578 10.0000000000000000  T T T 
 10.8885000000000005 20.6555719056626472 10.0000000000000000  T T T 
 13.9995000000000012 20.6555719056626472 10.0000000000000000  T T T 
 17.1105000000000018 20.6555719056626472 10.0000000000000000  T T T 
 20.2214999999999989 20.6555719056626472 10.0000000000000000  T T T 
 23.3325000000000031 20.6555719056626472 10.0000000000000000  T T T 
 26.4435000000000038 20.6555719056626472 10.0000000000000000  T T T 
 29.5545000000000044 20.6555719056626472 10.0000000000000000  T T T 
 32.6655000000000015 20.6555719056626472 10.0000000000000000  T T T 
 35.7765000000000057 20.6555719056626472 10.0000000000000000  T T T 
 38.8875000000000028 20.6555719056626472 10.0000000000000000  T T T 
 41.9984999999999999 20.6555719056626472 10.0000000000000000  T T T 
 12.4439999999999991 23.3497769368360331 10.0000000000000000  T T T 
 15.5549999999999997 23.3497769368360331 10.0000000000000000  T T T 
 18.6660000000000004 23.3497769368360331 10.0000000000000000  T T T 
 21.7770000000000010 23.3497769368360331 10.0000000000000000  T T T 
 24.8879999999999981 23.3497769368360331 10.0000000000000000  T T T 
 27.9990000000000023 23.3497769368360331 10.0000000000000000  T T T 
 31.1099999999999994 23.3497769368360331 10.0000000000000000  T T T 
 34.2210000000000036 23.3497769368360331 10.0000000000000000  T T T 
 37.3320000000000007 23.3497769368360331 10.0000000000000000  T T T 
 40.4429999999999978 23.3497769368360331 10.0000000000000000  T T T 
 43.5540000000000020 23.3497769368360331 10.0000000000000000  T T T 
 13.9995000000000012 26.0439819680094189 10.0000000000000000  T T T 
 17.1105000000000018 26.0439819680094189 10.0000000000000000  T T T 
 20.2214999999999989 26.0439819680094189 10.0000000000000000  T T T 
 23.3324999999999996 26.0439819680094189 10.0000000000000000  T T T 
 26.4435000000000002 26.0439819680094189 10.0000000000000000  T T T 
 29.5545000000000044 26.0439819680094189 10.0000000000000000  T T T 
 32.6655000000000015 26.0439819680094189 10.0000000000000000  T T T 
 35.7764999999999986 26.0439819680094189 10.0000000000000000  T T T 
 38.8875000000000028 26.0439819680094189 10.0000000000000000  T T T 
 41.9984999999999999 26.0439819680094189 10.0000000000000000  T T T 
 45.1094999999999970 26.0439819680094189 10.0000000000000000  T T T 
 15.5549999999999997 28.7381869991828083 10.0000000000000000  T T T 
 18.6660000000000004 28.7381869991828083 10.0000000000000000  T T T 
 21.7770000000000010 28.7381869991828083 10.0000000000000000  T T T 
 24.8879999999999981 28.7381869991828083 10.0000000000000000  T T T 
 27.9989999999999988 28.7381869991828083 10.0000000000000000  T T T 
 31.1099999999999994 28.7381869991828083 10.0000000000000000  T T T 
 34.2210000000000036 28.7381869991828083 10.0000000000000000  T T T 
 37.3320000000000007 28.7381869991828083 10.0000000000000000  T T T 
 40.4429999999999978 28.7381869991828083 10.0000000000000000  T T T 
 43.5540000000000020 28.7381869991828083 10.0000000000000000  T T T 
 46.6649999999999991 28.7381869991828083 10.0000000000000000  T T T 
  0.0000000000000000  0.0000000000000000 10.0000000500000006  T T T 
  3.1110000000000002  0.0000000000000000 10.0000000500000006  T T T 
  6.2220000000000004  0.0000000000000000 10.0000000500000006  T T T 
  9.3330000000000002  0.0000000000000000 10.0000000500000006  T T T 
 12.4440000000000008  0.0000000000000000 10.0000000500000006  T T T 
 15.5550000000000015  0.0000000000000000 10.0000000500000006  T T T 
 18.6660000000000004  0.0000000000000000 10.0000000500000006  T T T 
 21.7770000000000010  0.0000000000000000 10.0000000500000006  T T T 
 24.8880000000000017  0.0000000000000000 10.0000000500000006  T T T 
 27.9990000000000023  0.0000000000000000 10.0000000500000006  T T T 
 31.1100000000000030  0.0000000000000000 10.0000000500000006  T T T 
  1.5555000000000001  2.6942050311733885 10.0000000500000006  T T T 
  4.6665000000000001  2.6942050311733885 10.0000000500000006  T T T 
  7.7775000000000007  2.6942050311733885 10.0000000500000006  T T T 
 10.8885000000000005  2.6942050311733885 10.0000000500000006  T T T 
 13.9995000000000012  2.6942050311733885 10.0000000500000006  T T T 
 17.1105000000000018  2.6942050311733885 10.0000000500000006  T T T 
 20.2214999999999989  2.6942050311733885 10.0000000500000006  T T T 
 23.3324999999999996  2.6942050311733885 10.0000000500000006  T T T 
 26.4435000000000002  2.6942050311733885 10.0000000500000006  T T T 
 29.5545000000000009  2.6942050311733885 10.0000000500000006  T T T 
 32.6655000000000015  2.6942050311733885 10.0000000500000006  T T T 
  3.1110000000000002  5.3884100623467770 10.0000000500000006  T T T 
  6.2220000000000004  5.3884100623467770 10.0000000500000006  T T T 
  9.3330000000000002  5.3884100623467770 10.0000000500000006  T T T 
 12.4440000000000008  5.3884100623467770 10.0000000500000006  T T T 
 15.5550000000000015  5.3884100623467770 10.0000000500000006  T T T 
 18.6660000000000004  5.3884100623467770 10.0000000500000006  T T T 
 21.7770000000000010  5.3884100623467770 10.0000000500000006  T T T 
 24.8880000000000017  5.3884100623467770 10.0000000500000006  T T T 
 27.9990000000000023  5.3884100623467770 10.0000000500000006  T T T 
 31.1100000000000030  5.3884100623467770 10.0000000500000006  T T T 
 34.2210000000000036  5.3884100623467770 10.0000000500000006  T T T 
  4.6665000000000001  8.0826150935201646 10.0000000500000006  T T T 
  7.7774999999999999  8.0826150935201646 10.0000000500000006  T T T 
 10.8885000000000005  8.0826150935201646 10.0000000500000006  T T T 
 13.9995000000000012  8.0826150935201646 10.0000000500000006  T T T 
 17.1105000000000018  8.0826150935201646 10.0000000500000006  T T T 
 20.2215000000000025  8.0826150935201646 10.0000000500000006  T T T 
 23.3324999999999996  8.0826150935201646 10.0000000500000006  T T T 
 26.4435000000000002  8.0826150935201646 10.0000000500000006  T T T 
 29.5545000000000009  8.0826150935201646 10.0000000500000006  T T T 
 32.6655000000000015  8.0826150935201646 10.0000000500000006  T T T 
 35.7765000000000057  8.0826150935201646 10.0000000500000006  T T T 
  6.2220000000000004 10.7768201246935540 10.0000000500000006  T T T 
  9.3330000000000002 10.7768201246935540 10.0000000500000006  T T T 
 12.4440000000000008 10.7768201246935540 10.0000000500000006  T T T 
 15.5549999999999997 10.7768201246935540 10.0000000500000006  T T T 
 18.6660000000000004 10.7768201246935540 10.0000000500000006  T T T 
 21.7770000000000010 10.7768201246935540 10.0000000500000006  T T T 
 24.8880000000000017 10.7768201246935540 10.0000000500000006  T T T 
 27.9990000000000023 10.7768201246935540 10.0000000500000006  T T T 
 31.1100000000000030 10.7768201246935540 10.0000000500000006  T T T 
 34.2210000000000036 10.7768201246935540 10.0000000500000006  T T T 
 37.3320000000000007 10.7768201246935540 10.0000000500000006  T T T 
  7.7775000000000007 13.4710251558669434 10.0000000500000006  T T T 
 10.8885000000000005 13.4710251558669434 10.0000000500000006  T T T 
 13.9995000000000012 13.4710251558669434 10.0000000500000006  T T T 
 17.1105000000000018 13.4710251558669434 10.0000000500000006  T T T 
 20.2215000000000025 13.4710251558669434 10.0000000500000006  T T T 
 23.3325000000000031 13.4710251558669434 10.0000000500000006  T T T 
 26.4435000000000002 13.4710251558669434 10.0000000500000006  T T T 
 29.5545000000000009 13.4710251558669434 10.0000000500000006  T T T 
 32.6655000000000015 13.4710251558669434 10.0000000500000006  T T T 
 35.7765000000000057 13.4710251558669434 10.0000000500000006  T T T 
 38.8875000000000028 13.4710251558669434 10.0000000500000006  T T T 
  9.3330000000000002 16.1652301870403292 10.0000000500000006  T T T 
 12.4440000000000008 16.1652301870403292 10.0000000500000006  T T T 
 15.5549999999999997 16.1652301870403292 10.0000000500000006  T T T 
 18.6660000000000004 16.1652301870403292 10.0000000500000006  T T T 
 21.7770000000000010 16.1652301870403292 10.0000000500000006  T T T 
 24.8880000000000017 16.1652301870403292 10.0000000500000006  T T T 
 27.9990000000000023 16.1652301870403292 10.0000000500000006  T T T 
 31.1099999999999994 16.1652301870403292 10.0000000500000006  T T T 
 34.2210000000000036 16.1652301870403292 10.0000000500000006  T T T 
 37.3320000000000007 16.1652301870403292 10.0000000500000006  T T T 
 40.4430000000000049 16.1652301870403292 10.0000000500000006  T T T 
 10.8885000000000005 18.8594352182137186 10.0000000500000006  T T T 
 13.9995000000000012 18.8594352182137186 10.0000000500000006  T T T 
 17.1105000000000018 18.8594352182137186 10.0000000500000006  T T T 
 20.2214999999999989 18.8594352182137186 10.0000000500000006  T T T 
 23.3325000000000031 18.8594352182137186 10.0000000500000006  T T T 
 26.4435000000000002 18.8594352182137186 10.0000000500000006  T T T 
 29.5545000000000009 18.8594352182137186 10.0000000500000006  T T T 
 32.6655000000000015 18.8594352182137186 10.0000000500000006  T T T 
 35.7764999999999986 18.8594352182137186 10.0000000500000006  T T T 
 38.8875000000000028 18.8594352182137186 10.0000000500000006  T T T 
 41.9985000000000070 18.8594352182137186 10.0000000500000006  T T T 
 12.4440000000000008 21.5536402493871080 10.0000000500000006  T T T 
 15.5550000000000015 21.5536402493871080 10.0000000500000006  T T T 
 18.6660000000000004 21.5536402493871080 10.0000000500000006  T T T 
 21.7770000000000010 21.5536402493871080 10.0000000500000006  T T T 
 24.8880000000000017 21.5536402493871080 10.0000000500000006  T T T 
 27.9990000000000023 21.5536402493871080 10.0000000500000006  T T T 
 31.1099999999999994 21.5536402493871080 10.0000000500000006  T T T 
 34.2210000000000036 21.5536402493871080 10.0000000500000006  T T T 
 37.3320000000000007 21.5536402493871080 10.0000000500000006  T T T 
 40.4430000000000049 21.5536402493871080 10.0000000500000006  T T T 
 43.5540000000000020 21.5536402493871080 10.0000000500000006  T T T 
 13.9995000000000012 24.2478452805604974 10.0000000500000006  T T T 
 17.1105000000000018 24.2478452805604974 10.0000000500000006  T T T 
 20.2215000000000025 24.2478452805604974 10.0000000500000006  T T T 
 23.3325000000000031 24.2478452805604974 10.0000000500000006  T T T 
 26.4435000000000002 24.2478452805604974 10.0000000500000006  T T T 
 29.5545000000000044 24.2478452805604974 10.0000000500000006  T T T 
 32.6655000000000015 24.2478452805604974 10.0000000500000006  T T T 
 35.7764999999999986 24.2478452805604974 10.0000000500000006  T T T 
 38.8875000000000028 24.2478452805604974 10.0000000500000006  T T T 
 41.9985000000000070 24.2478452805604974 10.0000000500000006  T T T 
 45.1095000000000041 24.2478452805604974 10.0000000500000006  T T T 
 15.5550000000000015 26.9420503117338868 10.0000000500000006  T T T 
 18.6660000000000004 26.9420503117338868 10.0000000500000006  T T T 
 21.7770000000000010 26.9420503117338868 10.0000000500000006  T T T 
 24.8880000000000017 26.9420503117338868 10.0000000500000006  T T T 
 27.9990000000000023 26.9420503117338868 10.0000000500000006  T T T 
 31.1100000000000030 26.9420503117338868 10.0000000500000006  T T T 
 34.2210000000000036 26.9420503117338868 10.0000000500000006  T T T 
 37.3320000000000007 26.9420503117338868 10.0000000500000006  T T T 
 40.4430000000000049 26.9420503117338868 10.0000000500000006  T T T 
 43.5540000000000020 26.9420503117338868 10.0000000500000006  T T T 
 46.6650000000000063 26.9420503117338868 10.0000000500000006  T T T 
