BoronNitride                            
   1.0000000000000000     
    20.0000000000000000    0.0000000000000000    0.0000000000000000
     0.0000000000000000   20.0000000000000000    0.0000000000000000
     0.0000000000000000    0.0000000000000000    9.8241920471190003
   B    N    Al
    48    48   155
Direct
  0.6348303639457731  0.4833694881298623  0.0791084784268280
  0.8175806822590095  0.8814370785336911  0.6554039856932092
  0.5586246338896028  0.6427997248155479 -0.0116965191276870
  0.4290945366532839  0.6072324663681751  0.0663334220284819
  0.3570292403023947  0.6044840322329618  0.0486145567252871
  0.2599635199691541  0.5410835965759481  0.1801845456969297
  0.1021337159320803  0.2105077132693956  0.4404554794730869
  0.5059834771773793  0.3161047617247363  0.1682043081575989
  0.2847336515259634  0.2883132516548698  0.0318424743063077
  0.4588005188185509  0.5718068830557446  0.0067830611660303
  0.5605993404746339  0.2951651619692566  0.0472310414050482
  0.6337624922511106  0.3598430181594061  0.2375119662607804
  0.6697926102248899  0.4435294344360152  0.2720183670705126
  0.6230170353230274  0.5968995076834702  0.3560542742263424
  0.5595076413530468  0.5455211895312650  0.2844604445531879
  0.4427349140764456  0.5825379717880578  0.4103629776111789
  0.3610801210231016  0.6283034269072922  0.2522957796712785
  0.3938312629124862  0.2549297570978643 -0.6632108458406665
  0.2577396079855177  0.4053806661159801  0.1833618488984023
  0.2755462145232973  0.3483498868140024  0.3962906786628942
  0.3174940811087075  0.2803860458414266  0.2302657896416708
  0.5299111731962394  0.5432024633407262  0.5896731824527685
  0.5129628364302361  0.1584063793827848 -0.1158353621449585
  0.6911706743130752  0.2483970808472853  0.4615887617268128
  0.6762639366552591  0.4313936599904817  0.5295699419490302
  0.4517593026974088  0.6282386933683096  0.4130967548522240
  0.3207179703008987  0.4978586736522576  0.6782433889487998
  0.2669059996231114  0.7363579949476020  0.6524359046191878
  0.3209592382167726  0.6354507713674881  0.5164592393527307
  0.2692344940223587  0.5747161359616350  0.5583957751000685
  0.2270654990228360  0.4427831493490565  0.6431032555402975
  0.3041995464588332  0.4339478842250475  0.6247672936292390
  0.3408083620746135  0.3081796683857169  0.4250243695220605
  0.4526166226657136  0.2354379709485201  0.6533579556907171
  0.5603079770137299  0.2838942052605449  0.5556957904876445
  0.2737143157327433 -0.2371167894657175  0.2252976837440480
  0.6801682515827557  0.4149321968549355  0.7678724387480457
  0.6006540808971412  0.5259548460357174  0.0825649434553745
  0.5400279826595193  0.5867070023448000  0.8533179709782549
 -0.0526954478717490  0.0737262699439480  0.1295207622196255
  0.2726352390442138  0.7292701956226735  0.6912551528728957
  0.2641193725699680  0.5406442892968066  0.9497498903526550
  0.2219153893076881  0.4462620874988660  0.7857984020083227
  0.4597463820600999  0.3749088455523758 -0.6340765020463817
  0.3384972200432658  0.2612103063715722  0.7688872118582477
  0.4122693654662702  0.2632814525403822  0.7421371515166598
  0.5683354055355834  0.2643965045286751  0.7409423451098295
  0.4736796956440300  0.5207551191695843  0.5848062368900377
  0.1394971408847724  0.4816631378313579 -0.5463984395195405
  0.6185110098680069  0.5929272306920417  0.1439833350346533
  0.5554052632102744  0.5606672410699522  0.6270863267131918
  0.3823355296351529  0.6338735737316515  0.1176242750206116
  0.3132584338096032  0.5734706076490375 -0.0117208828737197
  0.2882683307207199  0.4380569173225445  0.1096811580162052
  0.2466878827174909  0.3122205420512840 -0.0158824087787725
  0.3160870264749082  0.3183182725752207  0.1162008116622971
  0.3607706562011340  0.2249536183990820 -0.0328027228064573
  0.5104922333223948  0.2779411666602176  0.1417249036568321
 -0.1075163581378957  0.4569217520476688  0.2468762079494395
  0.6358098454423626  0.4103324862366845  0.1367700937452535
  0.6500312544424800  0.5072874261108281  0.2485033935109743
  0.2073097661225359  0.3149080285215499 -0.4641345883053621
  0.0664821520468933  0.3972842637835886  0.4459361982411333
  0.3810057517964197  0.6240451883264928  0.4069114007521429
  0.2898965000961533  0.5900022402341352  0.2621823377178021
  0.2278636562821584  0.4540444642650976  0.3875925315246768
  0.3930434231864903  0.4274527155125402  0.6090244828246031
  0.3080793721692078  0.2897662687652016  0.3978123646043804
  0.3540241535378360  0.3501281451429448  0.2496437662990401
  0.5324094005545997  0.4454536989064476  0.1826816473082425
  0.7055605529513953  0.5307678675295053 -0.3360989089684018
  0.6151516480155728  0.5593571984873476  0.3673689677539232
  0.6165135441974584 -0.8500121092251870 -0.0169854776576441
  0.7834442886141196  0.4536449787785872  0.6035200917393390
  0.4885864849545747  0.6551380631694436  0.4566599763540510
  0.3914127912843990  0.6141327567183732  0.6359541560116200
  0.3104019444019551  0.9322785496412709  0.4431814137571490
  0.2497884736014432  0.4874992294651868  0.6174073448938836
  0.2574876981272796  0.3740152340177771  0.5214688809564767
  0.4578872175505334  0.3406454547383294  0.6153148429671930
  0.5410022961762825  0.4364539934771894  0.3753441754811932
  0.5165952690321783  0.2792738963167319  0.6621536580835160
  0.5999679544608633  0.3310387119449815  0.5389469442636524
  0.8703884032230634  0.3948292997755254 -0.0278164097454324
  0.0753919565242736  0.7127333355091944  0.9575969297222465
  0.5032353224766265  0.5209688930927979  0.9568961414605360
  0.5086902501533871  0.7617207699962678  0.7065083930238574
  0.6450611579973974  0.6092882491638161  0.5390024340635946
  0.4018886557603232  0.4502455174951397  0.6280373823468859
  0.3087080194756995  0.5701967483746854  0.6793009589894420
  0.2610583462524130  0.3642034980539032  0.9020817124127166
  0.3196737936363859  0.3002500757880002  0.9181920383939586
  0.4167075232323254  0.2561458201441358  0.7676217442195373
  0.5220258251513070  0.2605914810443398  0.8891456478069848
  0.5983081366667647  0.3414073902457414  0.7091134563040221
 -0.6254428946141660  0.0677974342885850 -0.3333968378802655
  0.5338425974519572  0.9710458444474552  0.2280803011162287
  0.3638629982241540  0.8299658660574190  0.5084550452488471
  0.5034716112810478  0.0707648771516553  0.8310999707028627
  0.6528909440298573  0.0776343932502606  0.2868525594314647
  0.2696938894479577 -0.0413397489185968  0.7174252559953228
  0.0103171703926326  0.0828360308004895  0.6747386054077065
  0.9576494453686317  0.7522625417154453  0.2591714112224001
  0.4683212511258714  0.7994423207273293  0.7287144695658944
  0.0861602098710233  0.9843915422615022  0.0527010818828596
  0.1934961277631179  0.1007102716710266  0.2687928437428234
  0.2082009438497298  0.9058873191990656  0.6417883998684403
  0.8890471944627257  0.4905905427683117  0.8475554380223624
  0.7075380970621299  0.7944044839362077  0.4219770189908786
  0.7636005977042749  0.4964354477093278  0.8796786280809344
  0.9204663682174342 -0.0473832254612713  0.4167223305690344
  0.3171800643752029  0.1800360325808620  0.0589425333801883
  0.1306590999658808  0.3123185116676390  0.7706222878806697
  0.7653488255534459  0.3711348556681682  0.2876740803169954
  0.8963243484379990  0.7916734483616947  0.2923749911605657
  0.7877376329313764  0.4759881887023428  0.4544581635116708
  0.8035631463180593  0.2125917576020740  0.4203849222640118
  0.8383960259408459  0.9526045013580593  0.4094378177649635
  0.6068851887146308  0.9006280766104316  0.8614296506544814
  0.4140416114582657  0.1944575069922078  0.4244601925165639
  0.8644767590929696  0.0765577756602761  0.8122704516895366
  0.8804520697637545  0.6954154092318752  0.7862894560718245
  0.4291196316744113  0.9797068716472722 -0.0488799059431556
  0.8902920177379338  0.2832438113690939  0.2392091351779405
  0.2253428829055241  0.9186191885195500  0.0341035829145820
  0.3421746355074357  0.0768152253133112  0.3293191507426241
  0.7905851822956946  0.6138091276689044  0.1999987346600714
  0.9972291886313910  0.8067759143351041  0.6371932806748644
  0.8415562698764900  0.8079318639801831  0.5023396696563875
  0.5653641284740050  0.8620975438749575  0.1248787808144477
  0.3751013083445802  0.0803277767676665  0.5504787596195169
  0.7393679880206849  0.8219664995867433  0.5916120994244523
  0.1171445874456708  0.4010406708788375  0.4122752213746390
  0.6862960743520542  0.7225458487238904  0.8741216520334242
  0.6266893857998448  0.8925964329398515  0.3523640989471729
  0.5934672980482598 -0.2516020246928965  0.3269723930653319
  0.9831428202435543  0.6913604122344171  0.6312272763506380
  0.1763203092554348  0.9840668984647434  0.2395619704127201
  0.2945254706862691  0.8914777540478239  0.5905789428548143
  0.2677204727024058  0.1555869421555847  0.6266066254446191
  0.0011549923770302  0.7955924125658848  0.3797563141123423
  0.4316716326793875  0.8000818937699413  0.2338212960578375
  0.2370316267755573  0.9425216338465068  0.4132672697081586
  0.7865220976493491  0.4107029495023808  0.1051111818366467
  0.1367437987227060  0.8572518034391221  0.5597576069594523
  0.3307592355778930  0.9333956539774482  0.7350292602188164
  0.8408815046380771  0.0561684526896661  0.5747466677730075
  0.9707574770149843  0.3146931958251752  0.7869699265037509
  0.9948032365480223  0.5715936631953026  0.5455770777557722
  0.8134592845284816  0.9121613225246150  0.1269521226492930
  0.1061791710256358  0.7600255446532411  0.7568203594604416
  0.1313261095569294  0.9907875367199989  0.8293695550303418
  0.7437030810080986  0.3712265115893671  0.4874657107618123
  0.3054404745935081  0.8243423782930338  0.3484091671996625
  0.7216163839084488  0.6385581023324215  0.0329785839903627
  0.7982538620117886  0.5355247122588864  0.6736123922016928
  0.0778767223485740  0.3999521961539820  0.4048546140006577
  0.5918571581495405  0.7941735088924697  0.6487114805861504
  0.1916835660728592  0.1099386661152299  0.8483368846034656
  0.2356840348208499  0.6976746462289894  0.2276837781362890
  0.6812312886946325  0.6778521619648781  0.5615148440858795
  0.9411346251241937  0.1245125876051944  0.2508353006094133
  0.1383006692882609  0.5714619627961384  0.2901096277231083
  0.7008416655176933  0.7745438887216159  0.0160370988739322
  0.9959518474845171  0.3743941090850624  0.2445658249278004
  0.6001433573346425  0.7679712007451615  0.1560263527022332
  0.0610151092868923  0.1497325872706850  0.6925896584118130
 -0.9788739855003159  0.9141257649260007  0.5729672253634042
  0.6966061867442263  0.6865046947376385  0.2882078191054380
  0.1055228192159235  0.6529003838003269  0.7869660754633171
  0.8885302048561556  0.2184172019034100  0.0601855009100595
  0.9009504583162005  0.5363976443990834  0.3388050268589289
  0.7998102474655090  0.6171641920557462  0.4710135640076260
 -0.3931626607208072  0.2061336919171041  0.7634203824840591
  0.5224252006483910  0.7806501426496110  0.4765525033966665
  0.7658251975452194  0.2854730286926426  0.0976584093305316
  0.4134972142624109  0.0473508303638381 -0.7777133485158753
  0.3982284030532575  0.8010457562380970  0.7100113954197160
  0.4629677032917238  0.1018742108851699  0.2171775902882657
 -0.7110199278041123  0.7993542570150372 -0.4784939179023421
  0.9634544360901867  0.2826936579506398  0.4785092196673045
 -0.4464485511852487 -0.1216253921855859  0.1017790864936770
  0.8150623459075648  0.2421797763037253 -0.0251285195766888
  0.8748038082441989  0.4230100948596228  0.2738320911338788
  0.8061475172546197  0.9492033963583117  0.6619537962545918
  0.6924820366989122  0.8892191199094479  0.5569271643275642
  0.9422426051782771  0.0081147239591489  0.2177382223210843
  0.6951354986228805  0.2716158772512974  0.2803406207777393
  0.4654267738319541  0.3760065984871330  0.2578431111052776
  0.4258849317756578  0.9163020047114603  0.5892770556036806
  0.4401534744549843  0.1326105431633811  0.1032535348831928
  0.3457770530528491  0.0808907905574022  0.1736808051834551
  0.7908288856188296  0.8515924228432521  0.8462883189114375
  0.3597501200787172  0.3764480152939571  0.9339338818238818
  0.1935072763457575  0.0626940216864939  0.5550840101568932
  0.5287285224551648  0.0231111451482313  0.6966432292178268
  0.7126725721896665  0.2394468398757815  0.6357306767687465
  0.6102722135210055  0.3596381936557583  0.2420058290371535
  0.1694808043754692  0.6986050834024016  0.6406198396025875
  0.5867555710928195  0.0763960717444696  0.4728406609598648
  0.2908525478051310  0.0501027774200987  0.1490266023631844
  0.3839782459262694  0.1298296219787614  0.8343388412809727
  0.8570182712941319  0.7311160185926217  0.2525312855322594
  0.9286215814786365  0.9148124416366379  0.4034628441580166
  0.8103904944346226  0.2652567904759185  0.8480182557527463
  0.1504422477467010  0.8569680814249704  0.8135903752028661
  0.5813808159008783  0.9313898274332425  0.6038572144025282
  0.6133015237550603  0.1694838017583433  0.6538018918925235
  0.9390021979962599  0.5974705889344781  0.7614186867213752
  0.0066802326851487 -0.3457456785495685  0.0897976417063009
  0.7837883152378197  0.0788212104332667  0.2693750461773429
  0.9314525990104539  0.2791986742547938  0.2391501265873096
  0.8547262090471469  0.6650106907337092  0.5451106338760683
  0.0956313270553970  0.1192066950930982  0.3910697462856843
  0.1014189099859787  0.7163027830613322  0.2923640816001153
  0.8574277245241175  0.5797962733124189  0.0300088914389910
  0.1366944735433642  0.6325859385205597  0.0913389738978434
  0.7743336898134232 -0.0162341082412506  0.7063926159894275
  0.2086322273568455  0.0062048176484828  0.2595871362901061
  0.9912164843175935  0.7200992212991653  0.4613041459045766
  0.5901501151333134  0.1515796679458356  0.2941171874464473
  0.8477863887613111  0.4040305274770562  0.8347345779866211
  0.4329233531986483  0.9370997975343489  0.3432552104538999
  0.1412388512485916  0.4670799236644096  0.6693112039961077
  0.0642336573319360  0.5421014414515611  0.7809682939765927
  0.9009794421981970  0.8620892272092060  0.6849239227758080
  0.3921999428242919  0.8742275638831954  0.7605704174363639
  0.0787839053560837  0.4443328279995001  0.1967063316386093
 -0.0361817574429163  0.3463656944002855  0.1300719244084669
  0.0632167339822440  0.5220087076397770  0.3415359727529195
  0.8711772801359521  0.2425114478298704  0.6586583640852376
  0.2459601186762118  0.7303309752059494  0.8209136940644506
  0.2516406666100047  0.0838792146190501 -0.0861063859039804
  0.9738899396260763  0.1427796769032314  0.6795658751268028
  0.2337893809203495  0.8225710629757772  0.3890268256416737
  0.6456997665936968  0.9943427632285589  0.1239065054500645
  0.4991347814484980  0.9080295918990513  0.8541593506785935
  0.3510042314906090  0.4420087598055014  0.5270123558726563
  0.2511859961005907  0.7140916224045248  0.5034992740265188
  0.7739705870200152  0.6570099598957478  0.6995300367782943
  0.7337011082208709  0.1095329826446579  0.7244707348285246
  0.6338800552989826 -0.3728482372482350  0.3890084185420458
  0.0155872166961937  0.9227793126553540  0.1321282458796104
  0.0276654846284494  0.9308086250668419  0.7738204725002511
  0.8060532786460439  0.8340788236239384  0.2591898286638638
  0.0841893251945016  0.9149684878548044  0.3565393800490209
  0.7630499856294557  0.3806026874305647  0.7039944127032736
  0.0582040701485057  0.4040891665730665  0.7211965323341933
  0.8350548476337615  0.7451231271154121  0.0372172879416712
  0.7291720606091781  0.8742786386839489  0.1297139358045702
  0.8867810958625323  0.3897666236230422  0.5847495493437976

  0.00000000E+00  0.00000000E+00  0.00000000E+00
  0.00000000E+00  0.00000000E+00  0.00000000E+00
  0.00000000E+00  0.00000000E+00  0.00000000E+00
  0.00000000E+00  0.00000000E+00  0.00000000E+00
  0.00000000E+00  0.00000000E+00  0.00000000E+00
  0.00000000E+00  0.00000000E+00  0.00000000E+00
  0.00000000E+00  0.00000000E+00  0.00000000E+00
  0.00000000E+00  0.00000000E+00  0.00000000E+00
  0.00000000E+00  0.00000000E+00  0.00000000E+00
  0.00000000E+00  0.00000000E+00  0.00000000E+00
  0.00000000E+00  0.00000000E+00  0.00000000E+00
  0.00000000E+00  0.00000000E+00  0.00000000E+00
  0.00000000E+00  0.00000000E+00  0.00000000E+00
  0.00000000E+00  0.00000000E+00  0.00000000E+00
  0.00000000E+00  0.00000000E+00  0.00000000E+00
  0.00000000E+00  0.00000000E+00  0.00000000E+00
  0.00000000E+00  0.00000000E+00  0.00000000E+00
  0.00000000E+00  0.00000000E+00  0.00000000E+00
  0.00000000E+00  0.00000000E+00  0.00000000E+00
  0.00000000E+00  0.00000000E+00  0.00000000E+00
  0.00000000E+00  0.00000000E+00  0.00000000E+00
  0.00000000E+00  0.00000000E+00  0.00000000E+00
  0.00000000E+00  0.00000000E+00  0.00000000E+00
  0.00000000E+00  0.00000000E+00  0.00000000E+00
  0.00000000E+00  0.00000000E+00  0.00000000E+00
  0.00000000E+00  0.00000000E+00  0.00000000E+00
  0.00000000E+00  0.00000000E+00  0.00000000E+00
  0.00000000E+00  0.00000000E+00  0.00000000E+00
  0.00000000E+00  0.00000000E+00  0.00000000E+00
  0.00000000E+00  0.00000000E+00  0.00000000E+00
  0.00000000E+00  0.00000000E+00  0.00000000E+00
  0.00000000E+00  0.00000000E+00  0.00000000E+00
  0.00000000E+00  0.00000000E+00  0.00000000E+00
  0.00000000E+00  0.00000000E+00  0.00000000E+00
  0.00000000E+00  0.00000000E+00  0.00000000E+00
  0.00000000E+00  0.00000000E+00  0.00000000E+00
  0.00000000E+00  0.00000000E+00  0.00000000E+00
  0.00000000E+00  0.00000000E+00  0.00000000E+00
  0.00000000E+00  0.00000000E+00  0.00000000E+00
  0.00000000E+00  0.00000000E+00  0.00000000E+00
  0.00000000E+00  0.00000000E+00  0.00000000E+00
  0.00000000E+00  0.00000000E+00  0.00000000E+00
  0.00000000E+00  0.00000000E+00  0.00000000E+00
  0.00000000E+00  0.00000000E+00  0.00000000E+00
  0.00000000E+00  0.00000000E+00  0.00000000E+00
  0.00000000E+00  0.00000000E+00  0.00000000E+00
  0.00000000E+00  0.00000000E+00  0.00000000E+00
  0.00000000E+00  0.00000000E+00  0.00000000E+00
  0.00000000E+00  0.00000000E+00  0.00000000E+00
  0.00000000E+00  0.00000000E+00  0.00000000E+00
  0.00000000E+00  0.00000000E+00  0.00000000E+00
  0.00000000E+00  0.00000000E+00  0.00000000E+00
  0.00000000E+00  0.00000000E+00  0.00000000E+00
  0.00000000E+00  0.00000000E+00  0.00000000E+00
  0.00000000E+00  0.00000000E+00  0.00000000E+00
  0.00000000E+00  0.00000000E+00  0.00000000E+00
  0.00000000E+00  0.00000000E+00  0.00000000E+00
  0.00000000E+00  0.00000000E+00  0.00000000E+00
  0.00000000E+00  0.00000000E+00  0.00000000E+00
  0.00000000E+00  0.00000000E+00  0.00000000E+00
  0.00000000E+00  0.00000000E+00  0.00000000E+00
  0.00000000E+00  0.00000000E+00  0.00000000E+00
  0.00000000E+00  0.00000000E+00  0.00000000E+00
  0.00000000E+00  0.00000000E+00  0.00000000E+00
  0.00000000E+00  0.00000000E+00  0.00000000E+00
  0.00000000E+00  0.00000000E+00  0.00000000E+00
  0.00000000E+00  0.00000000E+00  0.00000000E+00
  0.00000000E+00  0.00000000E+00  0.00000000E+00
  0.00000000E+00  0.00000000E+00  0.00000000E+00
  0.00000000E+00  0.00000000E+00  0.00000000E+00
  0.00000000E+00  0.00000000E+00  0.00000000E+00
  0.00000000E+00  0.00000000E+00  0.00000000E+00
  0.00000000E+00  0.00000000E+00  0.00000000E+00
  0.00000000E+00  0.00000000E+00  0.00000000E+00
  0.00000000E+00  0.00000000E+00  0.00000000E+00
  0.00000000E+00  0.00000000E+00  0.00000000E+00
  0.00000000E+00  0.00000000E+00  0.00000000E+00
  0.00000000E+00  0.00000000E+00  0.00000000E+00
  0.00000000E+00  0.00000000E+00  0.00000000E+00
  0.00000000E+00  0.00000000E+00  0.00000000E+00
  0.00000000E+00  0.00000000E+00  0.00000000E+00
  0.00000000E+00  0.00000000E+00  0.00000000E+00
  0.00000000E+00  0.00000000E+00  0.00000000E+00
  0.00000000E+00  0.00000000E+00  0.00000000E+00
  0.00000000E+00  0.00000000E+00  0.00000000E+00
  0.00000000E+00  0.00000000E+00  0.00000000E+00
  0.00000000E+00  0.00000000E+00  0.00000000E+00
  0.00000000E+00  0.00000000E+00  0.00000000E+00
  0.00000000E+00  0.00000000E+00  0.00000000E+00
  0.00000000E+00  0.00000000E+00  0.00000000E+00
  0.00000000E+00  0.00000000E+00  0.00000000E+00
  0.00000000E+00  0.00000000E+00  0.00000000E+00
  0.00000000E+00  0.00000000E+00  0.00000000E+00
  0.00000000E+00  0.00000000E+00  0.00000000E+00
  0.00000000E+00  0.00000000E+00  0.00000000E+00
  0.00000000E+00  0.00000000E+00  0.00000000E+00
  0.00000000E+00  0.00000000E+00  0.00000000E+00
  0.00000000E+00  0.00000000E+00  0.00000000E+00
  0.00000000E+00  0.00000000E+00  0.00000000E+00
  0.00000000E+00  0.00000000E+00  0.00000000E+00
  0.00000000E+00  0.00000000E+00  0.00000000E+00
  0.00000000E+00  0.00000000E+00  0.00000000E+00
  0.00000000E+00  0.00000000E+00  0.00000000E+00
  0.00000000E+00  0.00000000E+00  0.00000000E+00
  0.00000000E+00  0.00000000E+00  0.00000000E+00
  0.00000000E+00  0.00000000E+00  0.00000000E+00
  0.00000000E+00  0.00000000E+00  0.00000000E+00
  0.00000000E+00  0.00000000E+00  0.00000000E+00
  0.00000000E+00  0.00000000E+00  0.00000000E+00
  0.00000000E+00  0.00000000E+00  0.00000000E+00
  0.00000000E+00  0.00000000E+00  0.00000000E+00
  0.00000000E+00  0.00000000E+00  0.00000000E+00
  0.00000000E+00  0.00000000E+00  0.00000000E+00
  0.00000000E+00  0.00000000E+00  0.00000000E+00
  0.00000000E+00  0.00000000E+00  0.00000000E+00
  0.00000000E+00  0.00000000E+00  0.00000000E+00
  0.00000000E+00  0.00000000E+00  0.00000000E+00
  0.00000000E+00  0.00000000E+00  0.00000000E+00
  0.00000000E+00  0.00000000E+00  0.00000000E+00
  0.00000000E+00  0.00000000E+00  0.00000000E+00
  0.00000000E+00  0.00000000E+00  0.00000000E+00
  0.00000000E+00  0.00000000E+00  0.00000000E+00
  0.00000000E+00  0.00000000E+00  0.00000000E+00
  0.00000000E+00  0.00000000E+00  0.00000000E+00
  0.00000000E+00  0.00000000E+00  0.00000000E+00
  0.00000000E+00  0.00000000E+00  0.00000000E+00
  0.00000000E+00  0.00000000E+00  0.00000000E+00
  0.00000000E+00  0.00000000E+00  0.00000000E+00
  0.00000000E+00  0.00000000E+00  0.00000000E+00
  0.00000000E+00  0.00000000E+00  0.00000000E+00
  0.00000000E+00  0.00000000E+00  0.00000000E+00
  0.00000000E+00  0.00000000E+00  0.00000000E+00
  0.00000000E+00  0.00000000E+00  0.00000000E+00
  0.00000000E+00  0.00000000E+00  0.00000000E+00
  0.00000000E+00  0.00000000E+00  0.00000000E+00
  0.00000000E+00  0.00000000E+00  0.00000000E+00
  0.00000000E+00  0.00000000E+00  0.00000000E+00
  0.00000000E+00  0.00000000E+00  0.00000000E+00
  0.00000000E+00  0.00000000E+00  0.00000000E+00
  0.00000000E+00  0.00000000E+00  0.00000000E+00
  0.00000000E+00  0.00000000E+00  0.00000000E+00
  0.00000000E+00  0.00000000E+00  0.00000000E+00
  0.00000000E+00  0.00000000E+00  0.00000000E+00
  0.00000000E+00  0.00000000E+00  0.00000000E+00
  0.00000000E+00  0.00000000E+00  0.00000000E+00
  0.00000000E+00  0.00000000E+00  0.00000000E+00
  0.00000000E+00  0.00000000E+00  0.00000000E+00
  0.00000000E+00  0.00000000E+00  0.00000000E+00
  0.00000000E+00  0.00000000E+00  0.00000000E+00
  0.00000000E+00  0.00000000E+00  0.00000000E+00
  0.00000000E+00  0.00000000E+00  0.00000000E+00
  0.00000000E+00  0.00000000E+00  0.00000000E+00
  0.00000000E+00  0.00000000E+00  0.00000000E+00
  0.00000000E+00  0.00000000E+00  0.00000000E+00
  0.00000000E+00  0.00000000E+00  0.00000000E+00
  0.00000000E+00  0.00000000E+00  0.00000000E+00
  0.00000000E+00  0.00000000E+00  0.00000000E+00
  0.00000000E+00  0.00000000E+00  0.00000000E+00
  0.00000000E+00  0.00000000E+00  0.00000000E+00
  0.00000000E+00  0.00000000E+00  0.00000000E+00
  0.00000000E+00  0.00000000E+00  0.00000000E+00
  0.00000000E+00  0.00000000E+00  0.00000000E+00
  0.00000000E+00  0.00000000E+00  0.00000000E+00
  0.00000000E+00  0.00000000E+00  0.00000000E+00
  0.00000000E+00  0.00000000E+00  0.00000000E+00
  0.00000000E+00  0.00000000E+00  0.00000000E+00
  0.00000000E+00  0.00000000E+00  0.00000000E+00
  0.00000000E+00  0.00000000E+00  0.00000000E+00
  0.00000000E+00  0.00000000E+00  0.00000000E+00
  0.00000000E+00  0.00000000E+00  0.00000000E+00
  0.00000000E+00  0.00000000E+00  0.00000000E+00
  0.00000000E+00  0.00000000E+00  0.00000000E+00
  0.00000000E+00  0.00000000E+00  0.00000000E+00
  0.00000000E+00  0.00000000E+00  0.00000000E+00
  0.00000000E+00  0.00000000E+00  0.00000000E+00
  0.00000000E+00  0.00000000E+00  0.00000000E+00
  0.00000000E+00  0.00000000E+00  0.00000000E+00
  0.00000000E+00  0.00000000E+00  0.00000000E+00
  0.00000000E+00  0.00000000E+00  0.00000000E+00
  0.00000000E+00  0.00000000E+00  0.00000000E+00
  0.00000000E+00  0.00000000E+00  0.00000000E+00
  0.00000000E+00  0.00000000E+00  0.00000000E+00
  0.00000000E+00  0.00000000E+00  0.00000000E+00
  0.00000000E+00  0.00000000E+00  0.00000000E+00
  0.00000000E+00  0.00000000E+00  0.00000000E+00
  0.00000000E+00  0.00000000E+00  0.00000000E+00
  0.00000000E+00  0.00000000E+00  0.00000000E+00
  0.00000000E+00  0.00000000E+00  0.00000000E+00
  0.00000000E+00  0.00000000E+00  0.00000000E+00
  0.00000000E+00  0.00000000E+00  0.00000000E+00
  0.00000000E+00  0.00000000E+00  0.00000000E+00
  0.00000000E+00  0.00000000E+00  0.00000000E+00
  0.00000000E+00  0.00000000E+00  0.00000000E+00
  0.00000000E+00  0.00000000E+00  0.00000000E+00
  0.00000000E+00  0.00000000E+00  0.00000000E+00
  0.00000000E+00  0.00000000E+00  0.00000000E+00
  0.00000000E+00  0.00000000E+00  0.00000000E+00
  0.00000000E+00  0.00000000E+00  0.00000000E+00
  0.00000000E+00  0.00000000E+00  0.00000000E+00
  0.00000000E+00  0.00000000E+00  0.00000000E+00
  0.00000000E+00  0.00000000E+00  0.00000000E+00
  0.00000000E+00  0.00000000E+00  0.00000000E+00
  0.00000000E+00  0.00000000E+00  0.00000000E+00
  0.00000000E+00  0.00000000E+00  0.00000000E+00
  0.00000000E+00  0.00000000E+00  0.00000000E+00
  0.00000000E+00  0.00000000E+00  0.00000000E+00
  0.00000000E+00  0.00000000E+00  0.00000000E+00
  0.00000000E+00  0.00000000E+00  0.00000000E+00
  0.00000000E+00  0.00000000E+00  0.00000000E+00
  0.00000000E+00  0.00000000E+00  0.00000000E+00
  0.00000000E+00  0.00000000E+00  0.00000000E+00
  0.00000000E+00  0.00000000E+00  0.00000000E+00
  0.00000000E+00  0.00000000E+00  0.00000000E+00
  0.00000000E+00  0.00000000E+00  0.00000000E+00
  0.00000000E+00  0.00000000E+00  0.00000000E+00
  0.00000000E+00  0.00000000E+00  0.00000000E+00
  0.00000000E+00  0.00000000E+00  0.00000000E+00
  0.00000000E+00  0.00000000E+00  0.00000000E+00
  0.00000000E+00  0.00000000E+00  0.00000000E+00
  0.00000000E+00  0.00000000E+00  0.00000000E+00
  0.00000000E+00  0.00000000E+00  0.00000000E+00
  0.00000000E+00  0.00000000E+00  0.00000000E+00
  0.00000000E+00  0.00000000E+00  0.00000000E+00
  0.00000000E+00  0.00000000E+00  0.00000000E+00
  0.00000000E+00  0.00000000E+00  0.00000000E+00
  0.00000000E+00  0.00000000E+00  0.00000000E+00
  0.00000000E+00  0.00000000E+00  0.00000000E+00
  0.00000000E+00  0.00000000E+00  0.00000000E+00
  0.00000000E+00  0.00000000E+00  0.00000000E+00
  0.00000000E+00  0.00000000E+00  0.00000000E+00
  0.00000000E+00  0.00000000E+00  0.00000000E+00
  0.00000000E+00  0.00000000E+00  0.00000000E+00
  0.00000000E+00  0.00000000E+00  0.00000000E+00
  0.00000000E+00  0.00000000E+00  0.00000000E+00
  0.00000000E+00  0.00000000E+00  0.00000000E+00
  0.00000000E+00  0.00000000E+00  0.00000000E+00
  0.00000000E+00  0.00000000E+00  0.00000000E+00
  0.00000000E+00  0.00000000E+00  0.00000000E+00
  0.00000000E+00  0.00000000E+00  0.00000000E+00
  0.00000000E+00  0.00000000E+00  0.00000000E+00
  0.00000000E+00  0.00000000E+00  0.00000000E+00
  0.00000000E+00  0.00000000E+00  0.00000000E+00
  0.00000000E+00  0.00000000E+00  0.00000000E+00
  0.00000000E+00  0.00000000E+00  0.00000000E+00
  0.00000000E+00  0.00000000E+00  0.00000000E+00
  0.00000000E+00  0.00000000E+00  0.00000000E+00
  0.00000000E+00  0.00000000E+00  0.00000000E+00
  0.00000000E+00  0.00000000E+00  0.00000000E+00
  0.00000000E+00  0.00000000E+00  0.00000000E+00
  0.00000000E+00  0.00000000E+00  0.00000000E+00
  0.00000000E+00  0.00000000E+00  0.00000000E+00
