 BN_only  
 1.0000000000000000
    20.0320000000000000    0.0000000000000000    0.0000000000000000
    10.0160000000000000   17.3482208886098732    0.0000000000000000
     0.0000000000000000    0.0000000000000000   30.0000000499999970
 B  N   
  64  64 
Selective Dynamics
Cartesian
  0.0000000000000000  1.4456850740508227 10.0000000000000000  T T T 
  2.5040000000000004  1.4456850740508227 10.0000000000000000  T T T 
  5.0080000000000009  1.4456850740508227 10.0000000000000000  T T T 
  7.5120000000000005  1.4456850740508227 10.0000000000000000  T T T 
 10.0160000000000000  1.4456850740508227 10.0000000000000000  T T T 
 12.5200000000000014  1.4456850740508227 10.0000000000000000  T T T 
 15.0240000000000009  1.4456850740508227 10.0000000000000000  T T T 
 17.5280000000000022  1.4456850740508227 10.0000000000000000  T T T 
  1.2519999999999998  3.6142126851270566 10.0000000000000000  T T T 
  3.7560000000000002  3.6142126851270566 10.0000000000000000  T T T 
  6.2599999999999998  3.6142126851270566 10.0000000000000000  T T T 
  8.7639999999999993  3.6142126851270566 10.0000000000000000  T T T 
 11.2679999999999989  3.6142126851270566 10.0000000000000000  T T T 
 13.7720000000000002  3.6142126851270566 10.0000000000000000  T T T 
 16.2759999999999998  3.6142126851270566 10.0000000000000000  T T T 
 18.7800000000000011  3.6142126851270566 10.0000000000000000  T T T 
  2.5040000000000000  5.7827402962032908 10.0000000000000000  T T T 
  5.0080000000000000  5.7827402962032908 10.0000000000000000  T T T 
  7.5120000000000005  5.7827402962032908 10.0000000000000000  T T T 
 10.0160000000000000  5.7827402962032908 10.0000000000000000  T T T 
 12.5199999999999996  5.7827402962032908 10.0000000000000000  T T T 
 15.0240000000000009  5.7827402962032908 10.0000000000000000  T T T 
 17.5279999999999987  5.7827402962032908 10.0000000000000000  T T T 
 20.0320000000000036  5.7827402962032908 10.0000000000000000  T T T 
  3.7559999999999998  7.9512679072795249 10.0000000000000000  T T T 
  6.2599999999999998  7.9512679072795249 10.0000000000000000  T T T 
  8.7639999999999993  7.9512679072795249 10.0000000000000000  T T T 
 11.2680000000000007  7.9512679072795249 10.0000000000000000  T T T 
 13.7719999999999985  7.9512679072795249 10.0000000000000000  T T T 
 16.2759999999999998  7.9512679072795249 10.0000000000000000  T T T 
 18.7800000000000011  7.9512679072795249 10.0000000000000000  T T T 
 21.2840000000000025  7.9512679072795249 10.0000000000000000  T T T 
  5.0080000000000009 10.1197955183557600 10.0000000000000000  T T T 
  7.5120000000000005 10.1197955183557600 10.0000000000000000  T T T 
 10.0160000000000018 10.1197955183557600 10.0000000000000000  T T T 
 12.5199999999999996 10.1197955183557600 10.0000000000000000  T T T 
 15.0240000000000009 10.1197955183557600 10.0000000000000000  T T T 
 17.5280000000000022 10.1197955183557600 10.0000000000000000  T T T 
 20.0320000000000000 10.1197955183557600 10.0000000000000000  T T T 
 22.5360000000000014 10.1197955183557600 10.0000000000000000  T T T 
  6.2599999999999998 12.2883231294319941 10.0000000000000000  T T T 
  8.7640000000000011 12.2883231294319941 10.0000000000000000  T T T 
 11.2680000000000007 12.2883231294319941 10.0000000000000000  T T T 
 13.7720000000000002 12.2883231294319941 10.0000000000000000  T T T 
 16.2759999999999998 12.2883231294319941 10.0000000000000000  T T T 
 18.7800000000000011 12.2883231294319941 10.0000000000000000  T T T 
 21.2839999999999989 12.2883231294319941 10.0000000000000000  T T T 
 23.7880000000000038 12.2883231294319941 10.0000000000000000  T T T 
  7.5120000000000005 14.4568507405082283 10.0000000000000000  T T T 
 10.0160000000000018 14.4568507405082283 10.0000000000000000  T T T 
 12.5200000000000014 14.4568507405082283 10.0000000000000000  T T T 
 15.0240000000000009 14.4568507405082283 10.0000000000000000  T T T 
 17.5279999999999987 14.4568507405082283 10.0000000000000000  T T T 
 20.0320000000000036 14.4568507405082283 10.0000000000000000  T T T 
 22.5360000000000014 14.4568507405082283 10.0000000000000000  T T T 
 25.0400000000000027 14.4568507405082283 10.0000000000000000  T T T 
  8.7639999999999993 16.6253783515844624 10.0000000000000000  T T T 
 11.2680000000000007 16.6253783515844624 10.0000000000000000  T T T 
 13.7720000000000002 16.6253783515844624 10.0000000000000000  T T T 
 16.2759999999999998 16.6253783515844624 10.0000000000000000  T T T 
 18.7800000000000011 16.6253783515844624 10.0000000000000000  T T T 
 21.2839999999999989 16.6253783515844624 10.0000000000000000  T T T 
 23.7880000000000003 16.6253783515844624 10.0000000000000000  T T T 
 26.2920000000000016 16.6253783515844624 10.0000000000000000  T T T 
  0.0000000000000000  0.0000000000000000 10.0000000500000006  T T T 
  2.5040000000000000  0.0000000000000000 10.0000000500000006  T T T 
  5.0080000000000000  0.0000000000000000 10.0000000500000006  T T T 
  7.5120000000000005  0.0000000000000000 10.0000000500000006  T T T 
 10.0160000000000000  0.0000000000000000 10.0000000500000006  T T T 
 12.5199999999999996  0.0000000000000000 10.0000000500000006  T T T 
 15.0240000000000009  0.0000000000000000 10.0000000500000006  T T T 
 17.5279999999999987  0.0000000000000000 10.0000000500000006  T T T 
  1.2520000000000000  2.1685276110762342 10.0000000500000006  T T T 
  3.7560000000000002  2.1685276110762342 10.0000000500000006  T T T 
  6.2599999999999998  2.1685276110762342 10.0000000500000006  T T T 
  8.7640000000000011  2.1685276110762342 10.0000000500000006  T T T 
 11.2680000000000007  2.1685276110762342 10.0000000500000006  T T T 
 13.7720000000000002  2.1685276110762342 10.0000000500000006  T T T 
 16.2759999999999998  2.1685276110762342 10.0000000500000006  T T T 
 18.7799999999999976  2.1685276110762342 10.0000000500000006  T T T 
  2.5040000000000000  4.3370552221524683 10.0000000500000006  T T T 
  5.0080000000000000  4.3370552221524683 10.0000000500000006  T T T 
  7.5120000000000005  4.3370552221524683 10.0000000500000006  T T T 
 10.0160000000000000  4.3370552221524683 10.0000000500000006  T T T 
 12.5199999999999996  4.3370552221524683 10.0000000500000006  T T T 
 15.0239999999999991  4.3370552221524683 10.0000000500000006  T T T 
 17.5280000000000022  4.3370552221524683 10.0000000500000006  T T T 
 20.0320000000000000  4.3370552221524683 10.0000000500000006  T T T 
  3.7560000000000002  6.5055828332287025 10.0000000500000006  T T T 
  6.2599999999999998  6.5055828332287025 10.0000000500000006  T T T 
  8.7639999999999993  6.5055828332287025 10.0000000500000006  T T T 
 11.2680000000000007  6.5055828332287025 10.0000000500000006  T T T 
 13.7720000000000002  6.5055828332287025 10.0000000500000006  T T T 
 16.2759999999999998  6.5055828332287025 10.0000000500000006  T T T 
 18.7800000000000011  6.5055828332287025 10.0000000500000006  T T T 
 21.2839999999999989  6.5055828332287025 10.0000000500000006  T T T 
  5.0080000000000000  8.6741104443049366 10.0000000500000006  T T T 
  7.5120000000000005  8.6741104443049366 10.0000000500000006  T T T 
 10.0160000000000000  8.6741104443049366 10.0000000500000006  T T T 
 12.5199999999999996  8.6741104443049366 10.0000000500000006  T T T 
 15.0240000000000009  8.6741104443049366 10.0000000500000006  T T T 
 17.5279999999999987  8.6741104443049366 10.0000000500000006  T T T 
 20.0320000000000000  8.6741104443049366 10.0000000500000006  T T T 
 22.5359999999999978  8.6741104443049366 10.0000000500000006  T T T 
  6.2599999999999998 10.8426380553811708 10.0000000500000006  T T T 
  8.7639999999999993 10.8426380553811708 10.0000000500000006  T T T 
 11.2680000000000007 10.8426380553811708 10.0000000500000006  T T T 
 13.7720000000000002 10.8426380553811708 10.0000000500000006  T T T 
 16.2759999999999998 10.8426380553811708 10.0000000500000006  T T T 
 18.7800000000000011 10.8426380553811708 10.0000000500000006  T T T 
 21.2839999999999989 10.8426380553811708 10.0000000500000006  T T T 
 23.7879999999999967 10.8426380553811708 10.0000000500000006  T T T 
  7.5120000000000005 13.0111656664574049 10.0000000500000006  T T T 
 10.0160000000000000 13.0111656664574049 10.0000000500000006  T T T 
 12.5199999999999996 13.0111656664574049 10.0000000500000006  T T T 
 15.0240000000000009 13.0111656664574049 10.0000000500000006  T T T 
 17.5279999999999987 13.0111656664574049 10.0000000500000006  T T T 
 20.0320000000000000 13.0111656664574049 10.0000000500000006  T T T 
 22.5360000000000014 13.0111656664574049 10.0000000500000006  T T T 
 25.0399999999999991 13.0111656664574049 10.0000000500000006  T T T 
  8.7639999999999993 15.1796932775336391 10.0000000500000006  T T T 
 11.2679999999999989 15.1796932775336391 10.0000000500000006  T T T 
 13.7719999999999985 15.1796932775336391 10.0000000500000006  T T T 
 16.2759999999999998 15.1796932775336391 10.0000000500000006  T T T 
 18.7800000000000011 15.1796932775336391 10.0000000500000006  T T T 
 21.2839999999999989 15.1796932775336391 10.0000000500000006  T T T 
 23.7880000000000003 15.1796932775336391 10.0000000500000006  T T T 
 26.2919999999999980 15.1796932775336391 10.0000000500000006  T T T 
