BoronNitride                            
   1.0000000000000000     
    17.3520000000000003    0.0000000000000000    0.0000000000000000
     0.0000000000000000   15.0272728064999992    0.0000000000000000
     0.0000000000000000    0.0000000000000000   10.6393173196999999
   B    N    Al   C 
    48    47   128     1
Direct
  0.9941566248135972  0.0043549740655407  0.9955350873718918
  0.9950913164738601  0.1714429023181372  0.9925537653639063
  0.9947553889693838  0.3385643328677451  0.0098704622373620
  0.9947591761730237  0.5055437171664939  0.0032112530817557
  0.9944852249853829  0.6727678439815375  0.0035514313804022
  0.9941974461249684  0.8397331916155284  0.9874806682273484
  0.1187807420047914  0.0891891291064220  0.0050724504171789
  0.1193979208298812  0.2560138399466673  0.0047354059218976
  0.1209175898020800  0.4228296836852968  0.0039387982411345
  0.1189229798371362  0.5889587668585260  0.0181088910212010
  0.1194021556972570  0.7554838607721976  0.9995593313224408
  0.1191465785793956  0.9224322776058383  0.9916200309325462
  0.2465021764333805  0.0054662685353602  0.9657901741446021
  0.2449843795726871  0.1716404638889071  0.0275349807880962
  0.2457902405173504  0.3391021124499386  0.9662063016938530
  0.2439914005760719  0.5053302615411577  0.0037323513482128
  0.2467364654373678  0.6734261590543417  0.0353239567967193
  0.2445247292169669  0.8374304681591359  0.9711926883888117
  0.3717125326339603  0.0885177356858439  0.0062413243479492
  0.3723214618795578  0.2569776062368054  0.0170323023044668
  0.3689676315118069  0.4259851329553939  0.0276883768246176
  0.3691796979383777  0.5877542226384891  0.9805743673467534
  0.3707652788486890  0.7568928615964433  0.9853045930474866
  0.3700125560984926  0.9212081958644500  0.0026019721816637
  0.4964741257163047  0.0058268918492646  0.0113574301513068
  0.4967199162997488  0.1718803020031481  0.0191344719348195
  0.4983880917012911  0.3406252666963010  0.0280144885012348
  0.4969184488204901  0.5085676295579429  0.0046426857162054
  0.4956959080377127  0.6719314373036777  0.0197826221191174
  0.4941633482532576  0.8375690274897868  0.0020670599869139
  0.6206494092490960  0.0879702611446005  0.0189548816222420
  0.6216209993761979  0.2560365061874137  0.0144815321725180
  0.6204503589942776  0.4232052514150419  0.9980671385079033
  0.6211855196345483  0.5888530247071905  0.9882549235972292
  0.6205149833056729  0.7543279000294136  0.9526928034435993
  0.6189475124597423  0.9187847358452276  0.0299546541269918
  0.7454098410810189  0.0048872416444992  0.0138715921990928
  0.7459332218985369  0.1731076282522158  0.0386321701510571
  0.7439813547728492  0.3383173755393571  0.9968474336745572
  0.7454244718102936  0.5052395718259427  0.9841851224718112
  0.7452792390762967  0.6712766371992601  0.9944063748283599
  0.7458948509514151  0.8384719111641473  0.0017924793108111
  0.8700824023010241  0.0877358565187735  0.0227011309213011
  0.8705036086250652  0.2548997198761129  0.9914075580052845
  0.8695914866110521  0.4224443194833658  0.9899135914355135
  0.8704690765196570  0.5872007881734136  0.9929161572074199
  0.8711239438548390  0.7568181998723384  0.0018234092433417
  0.8701728421587852  0.9218009457066251  0.0048064951074436
  0.0778096817263176  0.0058146074978744  0.9943173435816364
  0.0783319353462509  0.1727857837874061  0.0063167608269223
  0.0784100343447255  0.3393668682778229  0.9995704112180912
  0.0777669150451188  0.5055581560285312  0.0156399653295741
  0.0771800851368526  0.6721730282755799  0.0082108058524730
  0.0782830666016617  0.8384316537578428  0.9774765807711387
  0.2027626562160167  0.0905925049355121  0.9897055320574213
  0.2029983347692358  0.2574048875941120  0.0148618387843273
  0.2030535426834519  0.4232150350163846  0.9932346748896335
  0.2019403372610680  0.5885867242300211  0.0223003711637879
  0.2016782170427182  0.7568514648243635  0.0210521066413399
  0.2027813428258547  0.9232495256311017  0.0031992106313967
  0.3298123603362759  0.0059686934557906  0.9958342027562486
  0.3302657469189573  0.1731666639950439  0.0112173941209320
  0.3295341993131131  0.3403195050630487  0.0082805250272587
  0.3271000805057110  0.5075442985836681  0.0070157877343271
  0.3259767985518495  0.6722335478865201  0.9734494172951774
  0.3292488265226231  0.8390531170048683  0.9950665695338808
  0.4548468466563375  0.0895618772433796  0.0083418859235937
  0.4565785180098955  0.2559578800334295  0.0313696193913744
  0.4536400265595322  0.5906260734112476  0.9680318724074907
  0.4532693886069100  0.7553580057204188  0.9989990033815013
  0.4535754863479795  0.9223469897667447  0.0115854286947427
  0.5781412519818925  0.0055693159112919  0.0165115188102881
  0.5797368666480107  0.1723856300955518  0.0185129203484604
  0.5809377773958340  0.3391976490176523  0.0105526369066295
  0.5798859880220677  0.5072483655159047  0.9948513795418531
  0.5806930569512108  0.6725725691602459  0.9974390240262675
  0.5761779066365278  0.8391283501716627  0.9760855281987842
  0.7038318145909729  0.0883634137583753  0.0244086560224978
  0.7037722906926532  0.2557463248867482  0.0128493609686897
  0.7034051773129708  0.4222935631296774  0.9875397192475831
  0.7043631829825157  0.5886301370532427  0.9837830855168960
  0.7029043227964388  0.7551991006865104  0.0052285653854859
  0.7031071754789557  0.9218359080501750  0.9886924901558773
  0.8277959713296669  0.0048249855061862  0.0114400312978046
  0.8275544687422547  0.1707298295401990  0.9892778540565056
  0.8280647627378485  0.3377987629733765  0.9983188761315533
  0.8291346513084428  0.5056701156935787  0.9880678476705308
  0.8295682842558046  0.6725404603444884  0.9852213876593917
  0.8283051475209597  0.8383978930262183  0.0078676176000375
  0.9535029321820052  0.0883686910671107  0.0045516660752915
  0.9530197228531507  0.2548073149725014  0.9939221444268914
  0.9531083776666271  0.4222385741795018  0.9915182080852724
  0.9534204263141038  0.5890079353975810  0.0057703137858373
  0.9535813443539898  0.7554038239776311  0.9952386894241376
  0.9529391115000003  0.9219367962285386  0.9947351417188742
  0.0582787275271524  0.0228675500074494  0.7265725348093252
  0.1030789385928685  0.3499046079177245  0.3175026992205946
  0.5685676874957327  0.2650718209748330  0.7055340287370652
  0.6242639532195386  0.8730575570650203  0.2289498125706072
  0.7191198888920466  0.2718087157110954  0.7088285959676149
  0.0003045999839868  0.2175782869317361  0.7532563519684543
  0.5613342292526038  0.7462631033626204  0.3654431351319148
  0.4246784078635190  0.2135712763796662  0.7028814527075926
  0.9241241000893439  0.0789858834144959  0.7018978430892338
  0.7742294069347061  0.1517693074028856  0.2707397412809453
  0.4637438935695584  0.5945648300276352  0.7815410247570154
  0.1186568672753054  0.7509346135266647  0.4972077587779571
  0.8978609735715452  0.5499552996021350  0.6744536558635820
  0.2149802459090017  0.5931636588504047  0.2294182856733596
  0.4896551562440693  0.6290598651500160  0.2241862308852753
  0.8004015808552708  0.4148813423098635  0.6881325985486388
  0.6106418958986908  0.3602236482461028  0.2700477345229553
  0.6902645197198498  0.9239523174751968  0.7963755701895557
  0.9707082831322952  0.7871718180314000  0.4655198871146384
  0.1690914467128312  0.3715321839043325  0.5361614811782305
  0.4014423380477874  0.7768009090095216  0.7186208975411177
  0.1803660143273210  0.9380301759381353  0.6468056987535366
  0.6480015206306012  0.4177876636117800  0.7513980934751078
  0.0808034080356081  0.6664993951010575  0.2754969243758922
  0.8026233909232789  0.8296253613791686  0.7088891580541733
  0.4949376672878650  0.5774209510679815  0.4581235821282315
  0.7334677892124343  0.5669180978927818  0.7068705481723859
  0.3425718788762910  0.1794792072205482  0.2156434492444511
  0.3182782694847479  0.3103101299510203  0.5606251300103228
  0.4529798025785161  0.0612598127481611  0.5600898419516247
  0.4862124303970878  0.4163046560518747  0.7363352275026995
  0.4750985881106769  0.2692973551677981  0.2408596578320026
  0.9426967555408878  0.9359418432319403  0.3080341112882496
  0.7318572143742430  0.8022479545265778  0.3642478146853090
  0.3384139249561002  0.4890860302425853  0.7413562252591028
  0.4148282882300092  0.7320842882671991  0.4205272179856906
  0.8687784223308367  0.0539487630054557  0.4665290899640073
  0.4798037564471249  0.2526951894190803  0.4844694382070900
  0.3584090380128468  0.3342588303036377  0.8195159011356339
  0.5290758116122035  0.7109699691607880  0.6125321675857937
  0.8209542651913811  0.3155726057160838  0.2163217106244119
  0.4806071131345568  0.0947520503429246  0.3067485200271634
  0.4503311412894045  0.9426144024988627  0.7637535816167912
  0.9709091638376035  0.7177237774760085  0.7124455083579340
  0.8311808674680106  0.6789777334993422  0.7838270008456633
  0.8999435606890244  0.2206467653658178  0.3916741685704997
  0.8078777046461174  0.1557117811295683  0.8021043524737206
  0.5549989679177922  0.9539065915792286  0.4074431773207856
  0.6384966125816929  0.8269222342564110  0.5514249580161437
  0.1833940052936321  0.4994615611044936  0.7240966658600511
  0.7999946027371051  0.0001631529588745  0.6859449116873886
  0.6554827611294866  0.7032742944534357  0.1800322513741938
  0.4599050117311687  0.8714879663061333  0.2565197721253912
  0.2922117834730557  0.6537181492589199  0.7812196304533878
  0.5248708035646368  0.1011784705151903  0.7768594411711206
  0.3161924676462196  0.8504947483270984  0.3165062726258920
  0.7524456859078209  0.1537410191830028  0.5244485980953751
  0.3580128215613720  0.5393230256272464  0.3217034808319802
  0.7075317718193509  0.9756750694484859  0.4901244613762384
  0.5584441634162421  0.8270866099123374  0.7851115732450825
  0.6577512017285014  0.0360799981298578  0.2676354762083079
  0.1906992322483418  0.0758838459000581  0.7977127784563008
  0.9275715873275006  0.0956565940490775  0.2300044822514205
  0.9916764693079678  0.6191482595914573  0.5082308171245634
  0.0655497366058360  0.8409142483237914  0.2668050649788477
  0.6821480450991183  0.4532750523357535  0.5084673290741126
  0.2163943470254435  0.2756509128228601  0.2020153079377852
  0.5864012639181562  0.5562501452589380  0.6580841408987179
  0.6802053891825504  0.6578388182869095  0.5000266173256724
  0.2898351992652869  0.1446782871639422  0.6627208436158993
  0.8385372849295873  0.7035443689845371  0.5203949809582815
  0.0382532364984705  0.5535107634626387  0.7614491366527328
  0.3741477615431619  0.6175959690640679  0.5847226936611114
  0.0449963309013695  0.9334743176197990  0.5075023388696994
  0.3513849420713640  0.1571985570373035  0.4460396049629992
  0.2334621028987168  0.8109369707897778  0.7723842579158308
  0.7342390354795822  0.4512488665976533  0.2760894611632019
  0.0590822648631209  0.1878705324516463  0.2883243718900831
  0.1318092674029270  0.1959215452797084  0.6477272177802310
  0.6716299708643364  0.1012101668753756  0.7323545691236647
  0.0289706362521088  0.5019413418175728  0.3134103842986452
  0.7793708305521043  0.6342915003185288  0.2801382942680742
  0.9448817955444129  0.3947785128008848  0.7534252675871903
  0.2242216850104096  0.3076261148743737  0.7552806720333400
  0.7789757174072423  0.3241559814193259  0.4552800373646398
  0.1821324424686058  0.8972892348532958  0.4167583265522146
  0.3528740093343112  0.3484868310651797  0.3143368943576153
  0.6776225676941352  0.7274377361085458  0.7470171928426105
  0.5452211180696908  0.4124156470929999  0.4937919974519015
  0.6071037289663175  0.1902359077158197  0.2776088295287578
  0.5791764480398687  0.9684227773514608  0.6507739489562037
  0.9660038020925086  0.3405704331114325  0.2493709447535030
  0.8727907524424132  0.2581430866894812  0.6336414016977119
  0.9087454547145564  0.4094313669101461  0.4837972787288749
  0.0214283234544293  0.2860457636185030  0.5130942096621702
  0.2071645132699829  0.2235168836977506  0.4329829266854949
  0.2934825447087044  0.8275663380727613  0.5576017767923123
  0.3101835079535752  0.9778375768102751  0.7576023200025112
  0.5963758604999279  0.1130408921571935  0.5085650876572478
  0.2613494230849754  0.6781108676470016  0.4447231809401775
  0.8444891711221580  0.8835182905513131  0.4922201011886304
  0.1428129697360672  0.6730340741962864  0.7179106502347066
  0.8662386301272134  0.7936772695202506  0.2677355515508186
  0.8082238939841294  0.5360149939973995  0.4758351418794881
  0.0786264090678778  0.8342376841452701  0.7425905538773481
  0.6161022402559992  0.5556796611778564  0.3100016109559527
  0.4077401913307470  0.4399426548775382  0.5178091593647944
  0.3398158257082140  0.6945435702445463  0.2165456627686318
  0.9411892311101966  0.9011719104614517  0.6941358064228180
  0.3513967571604712  0.0084825949516335  0.2513263008866370
  0.1402283021742027  0.5754679909092558  0.4794633833626892
  0.2059307216885069  0.9379859679399801  0.1903051381862054
  0.7943109087184314  0.9632938580432171  0.2720949935881616
  0.0747038004541402  0.0164780653488382  0.2779535461402740
  0.2095189944654821  0.1027572309708074  0.2556810069237928
  0.8771893545338987  0.4852863818396404  0.2584006627609750
  0.0405195999920023  0.4590664110276562  0.5586494979468531
  0.0870419692808775  0.3610334299425584  0.7550605587691115
  0.2250166079527796  0.4370086680122721  0.3005141617451058
  0.9340591375892547  0.6437243498675279  0.2810047608904338
  0.3113096751115935  0.9960310512071868  0.4984447906089523
  0.1632126243491356  0.0659288044556858  0.4901217216715952
  0.1994753575412422  0.7635049005459436  0.2248286269467024
  0.6386690337967312  0.2768016752722338  0.4867582805611343
  0.0124471048578482  0.1094556708335238  0.5036122817839507
  0.4385768427775648  0.8870690480775408  0.5231758977275882
  0.2699513426901574  0.4989721496017678  0.5197066124010168
  0.4828144586030672  0.4498335720896988  0.2408459504997762
  0.4548606667590901  0.4264788698669528  0.0424264295450024

  0.14248886E-03  0.10626262E-03 -0.55925172E-03
  0.32032436E-03  0.11989756E-03  0.68617080E-03
  0.49972591E-03  0.13617438E-03  0.31230063E-03
  0.33493349E-03  0.57297163E-03  0.42624531E-03
  0.50464037E-03 -0.68495199E-03 -0.55960278E-03
  0.42997588E-03 -0.70995179E-03  0.10407937E-02
 -0.72314766E-03  0.18144496E-04 -0.11218726E-02
  0.18479650E-03  0.97770329E-04  0.16345643E-02
 -0.37585552E-03  0.12441296E-03  0.72841265E-03
 -0.54518174E-04 -0.13714428E-03 -0.52182684E-05
 -0.16508463E-03 -0.76400489E-03 -0.13838582E-02
  0.26581832E-04 -0.26980529E-03 -0.12636684E-02
  0.55039125E-03  0.44695905E-03  0.74579197E-03
 -0.13499157E-03  0.11706263E-04 -0.36161126E-04
 -0.87790285E-03  0.29924570E-03 -0.91786309E-04
  0.22342241E-05 -0.24472716E-03  0.22837363E-02
 -0.10574770E-03  0.16940583E-03  0.20883497E-02
  0.27799232E-03  0.43109829E-03  0.31936442E-03
  0.79497585E-03 -0.20643164E-03  0.16964433E-02
  0.29936471E-03 -0.31276626E-03  0.76656622E-03
  0.16434523E-03  0.99281026E-04  0.69490276E-03
  0.29736016E-03  0.11567669E-03  0.18841618E-02
  0.34441181E-03  0.35380750E-03  0.92886848E-03
  0.39030506E-03  0.49516620E-03  0.14525276E-02
  0.11770792E-03 -0.31549767E-03 -0.24575959E-02
  0.32180046E-03 -0.10066823E-02 -0.13832660E-03
  0.62274223E-03 -0.80886868E-03 -0.16246910E-02
  0.73090195E-03 -0.69687091E-03 -0.32680588E-02
  0.60152374E-03  0.28014202E-03 -0.14247651E-02
 -0.27883029E-03  0.30247239E-03  0.11966569E-03
  0.76463387E-03 -0.79781365E-04  0.66235737E-03
 -0.26257380E-03 -0.56710891E-03 -0.44178281E-03
 -0.23867011E-03 -0.56696606E-03  0.37659847E-03
  0.34260887E-03  0.21019115E-03 -0.23268853E-04
 -0.39506842E-04  0.80895309E-03  0.16666399E-02
  0.58505536E-03  0.80289284E-03 -0.11745083E-02
  0.64788105E-03 -0.15108651E-03 -0.80002688E-03
 -0.85310932E-03  0.57512588E-07 -0.21142359E-02
  0.11671491E-03 -0.55434709E-03 -0.18388574E-02
  0.18629885E-03  0.11053127E-03 -0.13862901E-02
  0.16171718E-03  0.39815492E-03 -0.97978248E-04
  0.45555440E-03  0.95338131E-04  0.54313913E-04
  0.15142349E-03 -0.15526813E-03 -0.21667834E-02
  0.32540000E-03 -0.34710598E-03  0.15031290E-02
  0.63761432E-03 -0.22041869E-03  0.63558980E-03
  0.84604964E-03 -0.28576953E-04  0.57982595E-03
  0.82242118E-03 -0.55394577E-03  0.97524262E-03
 -0.27469543E-04 -0.24257167E-03 -0.46085259E-03
 -0.26327043E-03 -0.37737951E-03  0.10506771E-02
  0.21232999E-03  0.20962258E-03 -0.38992967E-03
  0.23655607E-03 -0.24354452E-03 -0.67486042E-03
  0.19419012E-03  0.71073305E-04 -0.25641674E-03
  0.46655563E-04 -0.20211301E-03  0.13230546E-02
  0.12763430E-03 -0.52666375E-03  0.22700840E-02
 -0.68069962E-03  0.34111684E-03 -0.13118365E-02
 -0.10094524E-04  0.25267077E-03  0.11072243E-02
 -0.28102014E-03  0.19985417E-03  0.93110932E-03
 -0.33270997E-03 -0.16021567E-04 -0.95870611E-03
 -0.33097701E-03  0.19345581E-03  0.25453088E-03
 -0.68019884E-03  0.32897835E-03 -0.59293039E-03
  0.50218417E-03  0.28377209E-03  0.51816992E-03
  0.56799333E-03 -0.15105682E-03  0.11553347E-02
  0.48059297E-04 -0.72584754E-03 -0.24129122E-02
  0.42882603E-04  0.51381629E-04  0.47036533E-03
  0.51005496E-03 -0.14188840E-05  0.12018476E-02
  0.65128653E-03  0.70564736E-03  0.96376001E-03
  0.39440837E-03 -0.56731067E-03 -0.58385338E-03
  0.66191438E-03 -0.58389319E-03 -0.17442121E-02
 -0.35631657E-03 -0.36161165E-03 -0.96562155E-04
  0.29696006E-03  0.14869662E-03  0.15157118E-03
  0.34989520E-04  0.22905212E-03 -0.76937640E-03
 -0.23558331E-03  0.34260346E-03  0.71111464E-03
  0.36529301E-03 -0.42826366E-03 -0.60036004E-03
  0.62733781E-03 -0.76074589E-03 -0.65740140E-03
  0.73291034E-03  0.10434966E-03  0.59821649E-03
  0.46934879E-03  0.39926204E-04 -0.91375468E-03
  0.22643313E-04 -0.50127080E-03  0.29671725E-02
  0.68956132E-03 -0.36048275E-03 -0.11438666E-02
 -0.51473659E-03  0.30783022E-03 -0.28022799E-04
 -0.24028416E-03 -0.15431202E-03  0.14067871E-04
  0.11621374E-04  0.10742082E-03 -0.67167977E-03
  0.69113565E-03  0.50061157E-03 -0.12304317E-02
  0.10164931E-02 -0.16135755E-04 -0.19095214E-03
  0.71880392E-03  0.70234813E-05  0.60769540E-03
 -0.47967149E-03 -0.42352809E-03 -0.28920003E-03
  0.10138121E-03 -0.46587071E-03 -0.10642346E-03
  0.70128443E-03 -0.86505236E-04  0.73185634E-04
  0.39305067E-03 -0.86945971E-04 -0.22163138E-03
  0.61354107E-03 -0.16346256E-03 -0.91968400E-03
  0.15210048E-03 -0.17650853E-03  0.14817755E-02
  0.22759669E-03  0.28307776E-04 -0.57091397E-03
  0.34189262E-03  0.21545225E-03  0.26252621E-03
  0.40887185E-03  0.58130509E-04 -0.12322670E-02
  0.39963331E-03 -0.20511620E-03  0.17079472E-02
  0.15462210E-03 -0.91656033E-04 -0.20798139E-03
  0.73421534E-03  0.93307532E-03 -0.16589278E-03
  0.43866125E-03  0.47422154E-03  0.18876580E-03
 -0.24121972E-03 -0.33674065E-03  0.83147640E-04
 -0.13264137E-02  0.56213166E-03 -0.39536528E-03
  0.99349152E-03 -0.80331367E-03 -0.15479035E-03
 -0.29808860E-03  0.28057147E-03  0.51933171E-03
  0.91825661E-03  0.43695193E-03  0.99717235E-03
 -0.17571285E-03 -0.90793938E-03  0.63154699E-03
 -0.29255869E-05  0.17268910E-03 -0.19157840E-03
  0.41944444E-03  0.11789473E-03 -0.31228695E-03
 -0.97810593E-03  0.14846811E-03 -0.35619559E-03
 -0.31581005E-03  0.96898510E-03  0.10188372E-02
 -0.45925962E-03  0.36558124E-03  0.99932490E-03
 -0.73606922E-03  0.21517243E-03 -0.27798159E-03
 -0.40834680E-02  0.19902242E-02  0.64353051E-03
  0.38999439E-03 -0.13545978E-02 -0.10384207E-02
 -0.26861675E-03  0.96298265E-03 -0.15601482E-03
  0.18783933E-03 -0.11264771E-02 -0.74471919E-04
 -0.11481603E-02 -0.41040460E-03 -0.41303913E-03
 -0.64582409E-04  0.24718258E-03 -0.36176681E-03
  0.16572775E-02  0.11869591E-03  0.97679324E-03
  0.10433552E-03 -0.11012842E-02  0.21251439E-03
 -0.30027847E-03 -0.57901648E-03  0.55542715E-04
 -0.10583248E-02 -0.10826953E-03  0.11503620E-02
 -0.95924120E-03  0.90893371E-03 -0.15999789E-03
  0.20594223E-02  0.77780120E-03 -0.93267642E-03
 -0.76654742E-03 -0.11071651E-02 -0.15777307E-02
 -0.10306227E-02 -0.42167975E-03 -0.10733719E-02
 -0.50389659E-03  0.32708979E-03  0.13124304E-03
 -0.34093093E-03 -0.37982944E-03  0.57224091E-03
  0.42672090E-03  0.15631594E-03  0.16270149E-03
 -0.46089488E-03 -0.13825964E-02 -0.20459494E-03
  0.88460638E-03 -0.26051038E-04 -0.11130331E-03
 -0.45606092E-03 -0.51809629E-03 -0.31987728E-03
 -0.47227656E-03 -0.30357192E-04 -0.57448978E-04
  0.46101901E-03  0.32590598E-03  0.15218893E-03
  0.26630098E-03 -0.10738176E-02 -0.42419418E-03
  0.52801630E-03  0.25017331E-03  0.11342299E-02
  0.78139792E-03  0.74684402E-03 -0.14854554E-03
 -0.20383362E-02  0.35992021E-03 -0.41234799E-03
 -0.80693134E-03  0.78300830E-03  0.87956739E-03
 -0.21185210E-03 -0.45356760E-03  0.23585304E-03
 -0.10148631E-02  0.10496327E-02  0.19953726E-03
 -0.21055894E-03  0.13661532E-03 -0.70494874E-03
 -0.29560358E-03 -0.53712714E-03  0.15079429E-02
 -0.28767704E-03  0.50715470E-03  0.86943257E-03
  0.31038303E-03 -0.22819958E-03  0.88362227E-03
  0.72618560E-04  0.64383454E-03  0.38292463E-03
  0.36268099E-03 -0.63851588E-03  0.86013954E-03
  0.15936803E-03  0.10465700E-02  0.41860423E-03
  0.25288892E-03  0.40290949E-03 -0.48208290E-03
 -0.10112661E-02 -0.54344881E-03  0.10626307E-02
  0.14310997E-02 -0.29498758E-03  0.10577716E-02
 -0.65361378E-03 -0.34761814E-03 -0.15054486E-03
 -0.27167731E-03  0.22474515E-03  0.30599974E-03
  0.34080984E-03 -0.26795302E-03 -0.34661861E-03
 -0.23804713E-03 -0.35677533E-03 -0.41422908E-03
  0.10106828E-02 -0.15792880E-03 -0.12426117E-02
  0.65617360E-03  0.44726341E-03  0.80488833E-03
 -0.43359553E-03 -0.76492360E-03 -0.60572707E-03
  0.15372152E-03 -0.42242189E-03  0.75126897E-03
 -0.48716406E-04  0.12494127E-02  0.12554388E-03
  0.33930287E-03  0.22711503E-03  0.40697668E-03
  0.22065712E-03 -0.36827900E-04 -0.78412128E-03
 -0.21989752E-03 -0.51570185E-03  0.79615041E-03
  0.76905788E-03  0.19534709E-02  0.44864940E-03
 -0.40072268E-03 -0.84781631E-04 -0.36070248E-03
  0.86301522E-04  0.54103830E-05  0.80533102E-03
  0.26856797E-03 -0.14340257E-02 -0.59128382E-03
 -0.43434443E-03  0.25969064E-03 -0.98501073E-03
 -0.53272073E-03  0.20506320E-03 -0.11608172E-02
  0.50181887E-04 -0.11609551E-02 -0.47735097E-03
  0.34610097E-03  0.20484004E-03  0.15471330E-03
  0.85783759E-04  0.50155743E-03 -0.30277204E-03
 -0.42999751E-03  0.97096533E-03  0.21768842E-04
 -0.33507088E-03 -0.55087531E-03 -0.35574247E-03
  0.87754539E-03  0.11347033E-02 -0.15227962E-02
  0.12686738E-03  0.70358927E-03 -0.45164736E-03
 -0.50677304E-03  0.63582674E-03  0.48594979E-03
 -0.60713637E-03 -0.48884063E-03  0.23890833E-03
 -0.31144314E-04  0.27878233E-03 -0.24241206E-03
 -0.14516914E-02  0.16166814E-03 -0.81548463E-03
 -0.11438977E-03  0.23623856E-03 -0.11546553E-02
 -0.10112478E-04  0.43319768E-03 -0.50740222E-04
 -0.68717496E-03  0.14320440E-03  0.25422826E-03
  0.41372733E-03  0.38834040E-03 -0.10755076E-02
 -0.63611443E-03 -0.34413872E-03  0.67422294E-03
 -0.57769590E-03 -0.10551792E-02 -0.62862122E-03
  0.56828400E-03 -0.15581572E-03  0.24942820E-03
  0.18952532E-02  0.11426530E-02 -0.17723952E-03
 -0.87178982E-04  0.20512006E-03 -0.46635887E-03
 -0.30465685E-03 -0.30109091E-03  0.28330825E-03
  0.16199578E-03 -0.61776416E-03  0.27394919E-03
  0.18851313E-02 -0.12959874E-02 -0.94673889E-03
  0.85069869E-03  0.12648518E-04 -0.13180858E-03
  0.27527162E-03  0.47573335E-03  0.20283870E-02
 -0.61042486E-05 -0.11953363E-02 -0.13291317E-03
 -0.85138471E-03  0.12754991E-03 -0.13563269E-03
 -0.79099864E-03 -0.11356747E-03 -0.37573158E-03
  0.29052679E-03  0.75753315E-03  0.24059841E-03
 -0.67256175E-03  0.13375258E-03 -0.54820161E-03
 -0.52172145E-03  0.24839333E-03 -0.15984848E-02
  0.19105735E-03  0.60930222E-03 -0.56576720E-03
  0.77986740E-03  0.88566121E-04  0.22933887E-03
  0.77999500E-03 -0.24718473E-03  0.32419253E-03
  0.22782056E-02 -0.11383673E-02 -0.15047138E-04
  0.25839172E-03  0.45281409E-03  0.80598365E-03
 -0.59055669E-03 -0.93934723E-03 -0.62768935E-03
  0.74020243E-04 -0.27961106E-03  0.45872093E-03
 -0.20857045E-02  0.14831696E-02  0.13311925E-02
 -0.22571293E-03 -0.45873475E-03  0.91436430E-04
  0.30768768E-03  0.35419627E-03  0.33376342E-03
 -0.42750195E-03 -0.37914904E-03 -0.15422018E-03
  0.11748626E-02  0.19949103E-03  0.56724628E-03
  0.54112296E-03 -0.63694623E-03  0.21178732E-03
 -0.44699181E-04  0.49454356E-04  0.61474674E-03
  0.77053107E-03 -0.12624821E-02 -0.37434813E-03
  0.24079299E-03 -0.14757716E-04 -0.21831504E-03
  0.48763807E-03 -0.11524548E-03  0.35972005E-04
 -0.66216716E-03  0.41699916E-03  0.60242142E-03
 -0.12650901E-02 -0.73151171E-03 -0.41821186E-03
 -0.37278097E-03  0.24700423E-03 -0.75374579E-03
  0.56652765E-03 -0.33736197E-04 -0.99342043E-03
  0.34668211E-04  0.29988996E-03  0.81482828E-03
 -0.34570307E-03  0.53201330E-03 -0.47976470E-03
  0.20040534E-03 -0.43744810E-03  0.62433534E-04
  0.18096445E-03  0.10449721E-02 -0.17645313E-03
 -0.31164464E-02 -0.89374701E-04 -0.15346401E-04
  0.74966498E-03 -0.28658330E-03 -0.17108711E-02

           1
  0.54731196234688684     
  0.64250644E+00 -0.24095217E-01 -0.80241981E-03  0.00000000E+00
  0.99416112E+00  0.43588443E-02  0.99550632E+00
  0.99510142E+00  0.17144727E+00  0.99258906E+00
  0.99477115E+00  0.33856929E+00  0.98865277E-02
  0.99476974E+00  0.50556459E+00  0.32331802E-02
  0.99450114E+00  0.67274290E+00  0.35226441E-02
  0.99421101E+00  0.83970733E+00  0.98753421E+00
  0.11875793E+00  0.89189790E-01  0.50147386E-02
  0.11940375E+00  0.25601740E+00  0.48194918E-02
  0.12090573E+00  0.42283421E+00  0.39762695E-02
  0.11892126E+00  0.58895377E+00  0.18108623E-01
  0.11939695E+00  0.75545603E+00  0.99948814E+00
  0.11914742E+00  0.92242245E+00  0.99155502E+00
  0.24651954E+00  0.54825473E-02  0.96582854E+00
  0.24498012E+00  0.17164089E+00  0.27533121E-01
  0.24576255E+00  0.33911301E+00  0.96620158E+00
  0.24399147E+00  0.50532135E+00  0.38498322E-02
  0.24673313E+00  0.67343233E+00  0.35431387E-01
  0.24453350E+00  0.83744617E+00  0.97120912E+00
  0.37173761E+00  0.88510217E-01  0.63285935E-02
  0.37233090E+00  0.25696621E+00  0.17071736E-01
  0.36897282E+00  0.42598875E+00  0.27724124E-01
  0.36918908E+00  0.58775844E+00  0.98067129E+00
  0.37077614E+00  0.75690575E+00  0.98535238E+00
  0.37002487E+00  0.92122623E+00  0.26766937E-02
  0.49647784E+00  0.58154010E-02  0.11231006E-01
  0.49673007E+00  0.17184364E+00  0.19127356E-01
  0.49840773E+00  0.34059581E+00  0.27930911E-01
  0.49694150E+00  0.50854225E+00  0.44745689E-02
  0.49571488E+00  0.67194164E+00  0.19709329E-01
  0.49415455E+00  0.83758004E+00  0.20732159E-02
  0.62067353E+00  0.87967355E-01  0.18988955E-01
  0.62161272E+00  0.25601585E+00  0.14458806E-01
  0.62044283E+00  0.42318460E+00  0.99808651E+00
  0.62119633E+00  0.58886068E+00  0.98825373E+00
  0.62051374E+00  0.75435736E+00  0.95277854E+00
  0.61896597E+00  0.91881398E+00  0.29894235E-01
  0.74543028E+00  0.48817389E-02  0.13830437E-01
  0.74590631E+00  0.17310763E+00  0.38523409E-01
  0.74398504E+00  0.33829719E+00  0.99675284E+00
  0.74543035E+00  0.50524360E+00  0.98411381E+00
  0.74528434E+00  0.67129114E+00  0.99440133E+00
  0.74590922E+00  0.83847538E+00  0.17952733E-02
  0.87008718E+00  0.87730201E-01  0.22589666E-01
  0.87051387E+00  0.25488708E+00  0.99148488E+00
  0.86961160E+00  0.42243629E+00  0.98994629E+00
  0.87049576E+00  0.58719975E+00  0.99294598E+00
  0.87114988E+00  0.75679802E+00  0.18735781E-02
  0.87017198E+00  0.92179211E+00  0.47827877E-02
  0.77801378E-01  0.58008629E-02  0.99437139E+00
  0.78338633E-01  0.17279342E+00  0.62967019E-02
  0.78417496E-01  0.33935800E+00  0.99953569E+00
  0.77773040E-01  0.50556074E+00  0.15626775E-01
  0.77181557E-01  0.67216567E+00  0.82788669E-02
  0.78287092E-01  0.83841247E+00  0.97759336E+00
  0.20274119E+00  0.90604929E-01  0.98963805E+00
  0.20299802E+00  0.25741409E+00  0.14918797E-01
  0.20304468E+00  0.42322231E+00  0.99328257E+00
  0.20192984E+00  0.58858614E+00  0.22251053E-01
  0.20166778E+00  0.75685851E+00  0.21065200E-01
  0.20275989E+00  0.92326151E+00  0.31687089E-02
  0.32982820E+00  0.59790288E-02  0.99586086E+00
  0.33028366E+00  0.17316116E+00  0.11276827E-01
  0.32953572E+00  0.34029307E+00  0.81563990E-02
  0.32710143E+00  0.50754617E+00  0.70399845E-02
  0.32599289E+00  0.67223350E+00  0.97351124E+00
  0.32926937E+00  0.83907882E+00  0.99511615E+00
  0.45485929E+00  0.89541215E-01  0.83118511E-02
  0.45659940E+00  0.25593661E+00  0.31279893E-01
  0.45362879E+00  0.59061290E+00  0.96802691E+00
  0.45327876E+00  0.75536342E+00  0.99900680E+00
  0.45357659E+00  0.92235533E+00  0.11545850E-01
  0.57813382E+00  0.55817940E-02  0.16548100E-01
  0.57974839E+00  0.17237003E+00  0.18482036E-01
  0.58095756E+00  0.33916994E+00  0.10518819E-01
  0.57990911E+00  0.50725217E+00  0.99488215E+00
  0.58070786E+00  0.67257402E+00  0.99739202E+00
  0.57617862E+00  0.83911009E+00  0.97623817E+00
  0.70385356E+00  0.88350285E-01  0.24349813E-01
  0.70375606E+00  0.25575754E+00  0.12847919E-01
  0.70339760E+00  0.42228794E+00  0.98754044E+00
  0.70436355E+00  0.58863405E+00  0.98374853E+00
  0.70292612E+00  0.75521733E+00  0.51652690E-02
  0.70313924E+00  0.92183532E+00  0.98868267E+00
  0.82781864E+00  0.48252413E-02  0.11471293E-01
  0.82753934E+00  0.17071440E+00  0.98926298E+00
  0.82806796E+00  0.33778180E+00  0.99831340E+00
  0.82915677E+00  0.50566697E+00  0.98807161E+00
  0.82958068E+00  0.67253729E+00  0.98520999E+00
  0.82832450E+00  0.83839194E+00  0.78203069E-02
  0.95350773E+00  0.88362262E-01  0.46278922E-02
  0.95302690E+00  0.25480835E+00  0.99389278E+00
  0.95311916E+00  0.42224642E+00  0.99153171E+00
  0.95343332E+00  0.58901005E+00  0.57069230E-02
  0.95359395E+00  0.75539635E+00  0.99532655E+00
  0.95294399E+00  0.92193346E+00  0.99472444E+00
  0.58301886E-01  0.22901534E-01  0.72656400E+00
  0.10309277E+00  0.34992188E+00  0.31751241E+00
  0.56856008E+00  0.26505956E+00  0.70553831E+00
  0.62422212E+00  0.87307803E+00  0.22892947E+00
  0.71915123E+00  0.27177946E+00  0.70882063E+00