BoronNitride                            
   1.00000000000000     
     8.6760000000000002    0.0000000000000000    0.0000000000000000
     0.0000000000000000   10.0181818709999995    0.0000000000000000
     0.0000000000000000    0.0000000000000000   18.0000000000000000
   B    N    Al
    16    16     1
Selective dynamics
Direct
  0.0000777352001467  0.0001595543632777  0.0001766670894256   T   T   T
 -0.0001265419521531  0.2501675235756112 -0.0002100818829617   T   T   T
 -0.0001354475262515  0.5003922623220899 -0.0001945042395106   T   T   T
  0.0000846859323933  0.7503445553933946  0.0002102799780287   T   T   T
  0.2500051957397414  0.1251037369974925 -0.0002309014432149   T   T   T
  0.2489122268980776  0.3753435626872005  0.0020687687602097   T   T   T
  0.2499660447610348  0.6255753999970527 -0.0004109774820256   T   T   T
  0.2501596348666725  0.8753874769713138  0.0000543504878541   T   T   T
  0.5001573082898336  0.0001209393333040 -0.0003967379096374   T   T   T
  0.5004808651426783  0.2493362033852190  0.0019333852283256   T   T   T
  0.5005185428401753  0.5012909160427166  0.0016835816200992   T   T   T
  0.5001056205973757  0.7505600669165684 -0.0005789929627725   T   T   T
  0.7502144184670841  0.1249917448409108 -0.0004316247749794   T   T   T
  0.7503304873946599  0.3751846594477828 -0.0005117411975388   T   T   T
  0.7501911954514240  0.6254340681684216 -0.0005324289287089   T   T   T
  0.7500615184646848  0.8751636163937151  0.0003061058893727   T   T   T
  0.1667703798866154  0.0003163565581036 -0.0000047717921933   T   T   T
  0.1666632761056601  0.2502671460998739 -0.0000413920159846   T   T   T
  0.1666382063254270  0.5004178311454436 -0.0000399558349503   T   T   T
  0.1667553306127413  0.7503908351901899 -0.0000712469052299   T   T   T
  0.4166911430538922  0.1250842743137332 -0.0005793358751944   T   T   T
  0.4168285101097280  0.3752698777993673  0.0051028347282816   T   T   T
  0.4166551309126726  0.6255342826805337 -0.0010931021683753   T   T   T
  0.4167954959070815  0.8753683944330544 -0.0002886078387118   T   T   T
  0.6667942967386791  0.0002258092355271 -0.0000140061844104   T   T   T
  0.6669446749219847  0.2501138930583545 -0.0007937329457131   T   T   T
  0.6669776372734105  0.5002268955133674 -0.0009438488079238   T   T   T
  0.6667445292991482  0.7502706425701623 -0.0001086326900575   T   T   T
  0.9167931105867849  0.1252047207123233 -0.0002629945794636   T   T   T
  0.9168111850048023  0.3752788401391337 -0.0002063887308804   T   T   T
  0.9167823218349431  0.6253301746345562 -0.0002100113458694   T   T   T
  0.9167544555820635  0.8752462670060633  0.0003051476455946   T   T   T
  0.4583054467613048  0.3901715171240910  0.1629815637757804   T   T   T
 
  0.00000000E+00  0.00000000E+00  0.00000000E+00
  0.00000000E+00  0.00000000E+00  0.00000000E+00
  0.00000000E+00  0.00000000E+00  0.00000000E+00
  0.00000000E+00  0.00000000E+00  0.00000000E+00
  0.00000000E+00  0.00000000E+00  0.00000000E+00
  0.00000000E+00  0.00000000E+00  0.00000000E+00
  0.00000000E+00  0.00000000E+00  0.00000000E+00
  0.00000000E+00  0.00000000E+00  0.00000000E+00
  0.00000000E+00  0.00000000E+00  0.00000000E+00
  0.00000000E+00  0.00000000E+00  0.00000000E+00
  0.00000000E+00  0.00000000E+00  0.00000000E+00
  0.00000000E+00  0.00000000E+00  0.00000000E+00
  0.00000000E+00  0.00000000E+00  0.00000000E+00
  0.00000000E+00  0.00000000E+00  0.00000000E+00
  0.00000000E+00  0.00000000E+00  0.00000000E+00
  0.00000000E+00  0.00000000E+00  0.00000000E+00
  0.00000000E+00  0.00000000E+00  0.00000000E+00
  0.00000000E+00  0.00000000E+00  0.00000000E+00
  0.00000000E+00  0.00000000E+00  0.00000000E+00
  0.00000000E+00  0.00000000E+00  0.00000000E+00
  0.00000000E+00  0.00000000E+00  0.00000000E+00
  0.00000000E+00  0.00000000E+00  0.00000000E+00
  0.00000000E+00  0.00000000E+00  0.00000000E+00
  0.00000000E+00  0.00000000E+00  0.00000000E+00
  0.00000000E+00  0.00000000E+00  0.00000000E+00
  0.00000000E+00  0.00000000E+00  0.00000000E+00
  0.00000000E+00  0.00000000E+00  0.00000000E+00
  0.00000000E+00  0.00000000E+00  0.00000000E+00
  0.00000000E+00  0.00000000E+00  0.00000000E+00
  0.00000000E+00  0.00000000E+00  0.00000000E+00
  0.00000000E+00  0.00000000E+00  0.00000000E+00
  0.00000000E+00  0.00000000E+00  0.00000000E+00
  0.00000000E+00  0.00000000E+00  0.00000000E+00
