BoronNitride
   1.00000000000000
   8.676     0.0      0.0
   0.0     10.018181871      0.0
   0.0      0.0     18.0
  B  N Al
 16  16  1 
Selective Dynamics
Cartesian 
0.0	0.0	0   T T T
0.0	2.50454546774	0  T T T
0.0	5.00909093549	0  T T T
0.0	7.51363640323	0  T T T
2.169	1.25227273387	0  T T T
2.169	3.75681820162	0  T T T 
2.169	6.26136366936	0  T T T
2.169	8.76590913711	0  T T T
4.338	0.0	0  T T T
4.338	2.50454546774	0  T T T
4.338	5.00909093549	0  T T T
4.338	7.51363640323	0  T T T
6.507	1.25227273387	0  T T T
6.507	3.75681820162	0  T T T
6.507	6.26136366936	0  T T T
6.507	8.76590913711	0  T T T
1.446	0.0	0  T T T
1.446	2.50454546774	0  T T T
1.446	5.00909093549	0  T T T
1.446	7.51363640323	0  T T T
3.615	1.25227273387	0  T T T
3.615	3.75681820162	0  T T T
3.615	6.26136366936	0  T T T
3.615	8.76590913711	0  T T T
5.784	0.0	0  T T T
5.784	2.50454546774	0  T T T
5.784	5.00909093549	0  T T T
5.784	7.51363640323	0  T T T
7.953	1.25227273387	0  T T T
7.953	3.75681820162	0  T T T
7.953	6.26136366936	0  T T T
7.953	8.76590913711	0  T T T
4.0 4.0 3.0 T T T

