BoronNitride                            
   1.00000000000000     
    17.3520000000000003    0.0000000000000000    0.0000000000000000
     0.0000000000000000   15.0272728064999992    0.0000000000000000
     0.0000000000000000    0.0000000000000000   10.6393173196999999
   B    N    Al   C 
    48    47   128     1
Direct
 -0.0054190572582916  0.0052563309071942 -0.0041004604614074
 -0.0047991756654302  0.1716326269612192 -0.0077794939695437
 -0.0055053179375820  0.3385532464080512  0.0096654367709536
 -0.0051973285481866  0.5055639123908470  0.0030491308204466
 -0.0055370752318440  0.6724442215969358  0.0039322705623389
 -0.0058319643270364  0.8387816043312860 -0.0130239090550782
  0.1192176466929828  0.0896144524116063  0.0056753413480767
  0.1192974818025813  0.2557691241896612  0.0038630513168859
  0.1206149011731341  0.4229244719667329  0.0035935660144805
  0.1184751200490616  0.5891572705795670  0.0180255206733552
  0.1193762186314097  0.7548859331248474  0.0004767152880504
  0.1192374692074663  0.9226379911488428 -0.0076777228177940
  0.2461784560798789  0.0052928048936508 -0.0345939723980858
  0.2449553371427197  0.1715600063766642  0.0275987104256652
  0.2460376392033555  0.3388496951908831 -0.0337441765819475
  0.2437865501055443  0.5057264915120780  0.0025911628440703
  0.2467236614425508  0.6732503791914345  0.0342257677544813
  0.2444847673442596  0.8372375168681541 -0.0289560057552452
  0.3713613748152843  0.0885878700464520  0.0053752252524646
  0.3724023045826994  0.2571143635044907  0.0166544120385084
  0.3688382476103725  0.4254637041105257  0.0272094862746127
  0.3689542577503450  0.5878316654578493 -0.0203741565291535
  0.3705849058525471  0.7568580549947048 -0.0151592223600312
  0.3699364567202877  0.9211831163736884  0.0018627507416408
  0.4961679802711920  0.0058953697778373  0.0126410756887288
  0.4969966853251265  0.1723966583853147  0.0191859182630987
  0.4981904197833419  0.3410842373478022  0.0288283803030468
  0.4964890744773843  0.5088077132480658  0.0063723327015128
  0.4954619754090998  0.6717590030010492  0.0205565518853169
  0.4943580518156610  0.8377034773062735  0.0020412480981359
  0.6202861222825833  0.0880234105600403  0.0186030428752826
  0.6216515554607902  0.2560833622853455  0.0146887641394327
  0.6201958858013127  0.4235744343352031 -0.0021011951416260
  0.6208484092830768  0.5889194671855137 -0.0117371149255265
  0.6205974620353544  0.7540375730240183 -0.0481760669267091
  0.6186438070045865  0.9185052042981375  0.0306704465908991
  0.7447388341921619  0.0053555744282112  0.0143549966942748
  0.7461998055550458  0.1730837400104284  0.0396629132392239
  0.7436386549088122  0.3382901045018046 -0.0021301606151887
  0.7455725659695784  0.5055452745634564 -0.0150839669757661
  0.7454501999731110  0.6713317104448945 -0.0055373752575002
  0.7454038058779402  0.8381671595431344  0.0017051279303271
  0.8699259811825568  0.0882378989459741  0.0238023415484197
  0.8703260765274504  0.2545673993114508 -0.0094048546578426
  0.8696976828188042  0.4223594079136468 -0.0104011902645989
  0.8711563378824286  0.5879918607866119 -0.0072831975535789
  0.8708225410379924  0.7564538550024247  0.0013005223239934
  0.8696591723426764  0.9224059141428606  0.0051603367899371
  0.0774393331881309  0.0055464698113579 -0.0062785069037215
  0.0781352011220121  0.1725788388930444  0.0065287140306861
  0.0783923990379024  0.3396503132699157 -0.0000655932726297
  0.0778193160148504  0.5052455492437722  0.0157627609157159
  0.0774783706172486  0.6726323278157003  0.0074732482218552
  0.0779731155732293  0.8390759275662893 -0.0237214504494635
  0.2030905226542838  0.0904550587249747 -0.0096437650702406
  0.2030994666684438  0.2573962222006716  0.0142540557388669
  0.2033992873182977  0.4230611196016231 -0.0072397091533434
  0.2024713067056964  0.5885063966794263  0.0228305972703028
  0.2018770272862229  0.7569120817602590  0.0209027092088144
  0.2031165270195150  0.9231506526677965  0.0034901427493659
  0.3296511945983596  0.0059016900862445 -0.0043860975511517
  0.3300629165416890  0.1730981070790898  0.0106037093466360
  0.3296206402962136  0.3409623693157571  0.0095878612356337
  0.3270478131262102  0.5075218557203499  0.0068446353852382
  0.3257991023981200  0.6722381643219114 -0.0271116199265652
  0.3289321889064385  0.8385837522052493 -0.0054516700481275
  0.4546761777050129  0.0897167206187269  0.0086354756101471
  0.4561825587860069  0.2561350016449842  0.0322726202206478
  0.4539595598750789  0.5908258217098836 -0.0319218042538097
  0.4531433126423473  0.7551333703199392 -0.0010976816057515
  0.4536489277278206  0.9222316462572723  0.0119533336837098
  0.5785665237191512  0.0053828469693433  0.0161154764470867
  0.5794558251661729  0.1724871481131452  0.0188268815755324
  0.5806530003587455  0.3396049830898082  0.0108703268128018
  0.5798504528451736  0.5070772156627109 -0.0054947283053847
  0.5805214700731279  0.6724465057031067 -0.0020960331329658
  0.5761726036316022  0.8393994279465492 -0.0254889946010125
  0.7036587697072053  0.0882700565256714  0.0249913214654265
  0.7041860726402234  0.2557920990455883  0.0128065743353467
  0.7038185691990020  0.4222944987124838 -0.0125172840870878
  0.7045501479395417  0.5882402424617289 -0.0158978071038190
  0.7027118439064705  0.7551068696989910  0.0058606902395932
  0.7028094365655920  0.9218553448040651 -0.0112379334612021
  0.8280959151377764  0.0040086241899820  0.0109963393383543
  0.8278389661690948  0.1710636000638289 -0.0105530261875670
  0.8280590737168295  0.3383155531913088 -0.0016549392929527
  0.8281955428840081  0.5052326359364495 -0.0120130060677396
  0.8292540099821427  0.6725494388563257 -0.0146743331409307
  0.8284002611348270  0.8387624737403694  0.0083457259596935
  0.9534876589165807  0.0879056463769981  0.0037760492917694
  0.9529711883289576  0.2548546059678327 -0.0057555515271271
  0.9528593104894264  0.4219318306735531 -0.0085834052248940
  0.9528130717321808  0.5888913499649533  0.0063697211570332
  0.9535118039043277  0.7565270439285579 -0.0057014702952809
  0.9526690999768844  0.9218574591679265 -0.0051691103943556
  0.0580546100835792  0.0225427043038256  0.7266489653087046
  0.1029387485668549  0.3497371687516140  0.3174039575936012
  0.5686438080177697  0.2651889019341768  0.7054951971005251
  0.6246711617428059  0.8728554217381240  0.2291341971328445
  0.7188101723994671  0.2720873722359666  0.7089064907862003
  0.0003942773244978  0.2174832794557915  0.7530032321225657
  0.5610551040229881  0.7461051806239402  0.3649544310180640
  0.4247215890727683  0.2138908027051852  0.7025676928714168
  0.9241292742365220  0.0789241418466270  0.7019893497560390
  0.7741068173746657  0.1517246911237176  0.2709001372168335
  0.4640436627057564  0.5945091709996904  0.7817163219330107
  0.1187518293910889  0.7506007971537626  0.4966940368112829
  0.8980014539601402  0.5498270491832351  0.6739484432351552
  0.2152027527178909  0.5930842433908254  0.2295709585299825
  0.4909185305815809  0.6283585602400358  0.2238618734253787
  0.8002841719874727  0.4153689814721526  0.6886425948839389
  0.6107170755043021  0.3598962429020038  0.2701308284407274
  0.6902006903619557  0.9243504443748064  0.7963931577075088
  0.9710619453868404  0.7873277983801000  0.4657277040272219
  0.1691198221023780  0.3714553798516069  0.5363473617922387
  0.4009297330850925  0.7767631557664609  0.7181444460107106
  0.1803285973220318  0.9384306174538546  0.6466771339451158
  0.6480930782947864  0.4179821650316273  0.7513578757813784
  0.0811377249144072  0.6665466189411821  0.2749199364463013
  0.8029196811448562  0.8292762277088073  0.7089660425642396
  0.4943083566859563  0.5771435916788288  0.4585952974816248
  0.7337131775041702  0.5673110742230941  0.7076625381053229
  0.3428825275789533  0.1796352980847450  0.2161869930239726
  0.3184377474706324  0.3102070748859103  0.5605673076178945
  0.4530762716283517  0.0613965246108278  0.5598032653828892
  0.4860881154646604  0.4162577728115379  0.7362587540913302
  0.4752378820678571  0.2697861578277618  0.2409635313931946
 -0.0575747968287799  0.9359544479300199  0.3080883246565967
  0.7319918982412084  0.8024320108903065  0.3644014990575357
  0.3385536862543651  0.4890962197859905  0.7413730609187191
  0.4146852529901693  0.7319663554378991  0.4204404757780019
  0.8686981612762635  0.0543316902655909  0.4667384826867454
  0.4796404557339244  0.2526065689472037  0.4839049354652052
  0.3581713356649689  0.3339946713761099  0.8195826190976121
  0.5297021088023380  0.7108385605771250  0.6127291920167379
  0.8211938501593967  0.3152940631042124  0.2158936426881685
  0.4806786942611268  0.0949142410949708  0.3066320176231248
  0.4506511396255892 -0.0577611629595722  0.7636604688254556
 -0.0290253771942001  0.7176739130561974  0.7127995529797514
  0.8312632952598185  0.6791776304518718  0.7830739560165079
  0.9000299955801523  0.2204645194563403  0.3912423000510507
 -0.1922191138495641  0.1557854207528029  0.8016596420888386
  0.5549807234076943 -0.0463198119114618  0.4072594161346430
  0.6383921531850206  0.8271474113341802  0.5509947773607989
  0.1833471262166572  0.4990935339147068  0.7238799276149465
  0.7999129542863113  0.0000254859643041  0.6861923908846552
  0.6557852658103998  0.7034722138884328  0.1794947610586932
  0.4594572559348744  0.8715964531595146  0.2560025892616556
  0.2924098649710173  0.6538399514999581  0.7813075801772240
  0.5249570099250486  0.1010925428218089  0.7767076087484686
  0.3160987240845111  0.8505894312530748  0.3166690189935158
  0.7525211765806137  0.1538596978271232  0.5246493853177182
  0.3576938681783214  0.5393795419066582  0.3223395708603645
  0.7073260956702287  0.9755121424966287  0.4897266351016946
  0.5585763620789306  0.8273592808887335  0.7854336972684602
  0.6577041881045724  0.0362359415873657  0.2672636047547359
  0.1907176955766357  0.0754462174452647  0.7976566943161805
  0.9274750261701534  0.0955788083493293  0.2298173100393437
 -0.0083920310101691  0.6191462018371920  0.5086368080541203
  0.0656214302992907  0.8410956419118438  0.2664190367690100
  0.6819107245985767  0.4525869748310382  0.5082337240972449
  0.2165121066397418  0.2756715081130371  0.2022249977590015
  0.5863664257790918  0.5562575081155741  0.6576974199448359
  0.6801225978557225  0.6583428307777722  0.5003169670634496
  0.2899664836331883  0.1445850864429120  0.6632111657453263
 -0.1613073744481521  0.7034733479464474  0.5209744693439150
  0.0382380452172123  0.5539231295416853  0.7616888713084710
  0.3740505357276229  0.6175230045312055  0.5846316884820502
  0.0449685495188879 -0.0667107762277485  0.5076595666463850
  0.3515241171877933  0.1568549888777519  0.4460086461146088
  0.2335689340927267  0.8111266235596158  0.7725915408295442
  0.7339663277413860  0.4508436324922657  0.2768559931844958
  0.0590497017604944  0.1876265732950198  0.2885418986974652
  0.1319601447052267  0.1956991871295155  0.6474837780868186
  0.6718218449926660  0.1013830797732641  0.7322351836213593
  0.0289782519170893  0.5018413636544826  0.3135233375682173
  0.7798196916415809  0.6342280789607913  0.2805447700083142
  0.9449210212638910  0.3946961187763616  0.7539919907447813
  0.2242310185660826  0.3074809280535233  0.7553081499030695
  0.7791896898482550  0.3241177835703206  0.4551601093144712
  0.1820024673894620 -0.1028483391115320  0.4173113034169729
  0.3530721368482035  0.3485988851849594  0.3140016147254678
  0.6777994007756866  0.7278029509899324  0.7473272446767519
  0.5450518206413534  0.4124797502524688  0.4936725479715864
  0.6065272103762995  0.1898281104565448  0.2776942320639481
  0.5792013916126586  0.9683476412127858  0.6510221070178269
 -0.0338976322278598  0.3406753148067627  0.2492243071416504
  0.8727393956571661  0.2583569166416714  0.6335054244895584
  0.9081579548114749  0.4098901319052050  0.4842703844951882
  0.0211761675390105  0.2860332541625096  0.5131535806173110
  0.2070792803299148  0.2233443592431495  0.4319512742962879
  0.2934937564342073  0.8279922967086911  0.5576731245731397
  0.3104370204728140 -0.0222046595123400  0.7576710505027351
  0.5966146617180246  0.1130860251917144  0.5087495460891734
  0.2612525162728666  0.6778374827176550  0.4445945232973860
  0.8446906442344769  0.8834610006142046  0.4924928773647089
  0.1429647804057301  0.6729429572403263  0.7187096973617313
  0.8661771847353660  0.7934652436666031  0.2680201915417865
  0.8080031286539427  0.5359789849318736  0.4757123180570283
  0.0783802691695808  0.8343190724206480  0.7424181402284413
  0.6153796420867977  0.5560919210613593  0.3099817929804854
  0.4076674994827941  0.4397881833694642  0.5174053188944019
  0.3399881416410839  0.6948808385929679  0.2168580667749951
  0.9411683392548300  0.9012667642693896  0.6938972645680582
  0.3520382329200188  0.0079511676689856  0.2506725065628886
  0.1402960735438199  0.5756368564829361  0.4794167755334899
  0.2058331092284717 -0.0621441101620133  0.1901084022994926
  0.7944434157850179  0.9634223726091976  0.2721708696275270
  0.0743461599441314  0.0164059599217282  0.2776713634721548
  0.2093507804245568  0.1030071886480950  0.2555840904684044
  0.8772134656858210  0.4852746757264726  0.2580968024402272
  0.0402830984644660  0.4595254809992650  0.5588317315527589
  0.0869646182451774  0.3610463726700376  0.7551732211709951
  0.2248697705165185  0.4370560256194135  0.3004943637612481
  0.9342496842774813  0.6435748335499630  0.2807010847208782
  0.3116957785733608 -0.0037045696643178  0.4986565164944564
  0.1633190689604023  0.0658347535656881  0.4905119108942884
  0.1992912439767941  0.7635163963391106  0.2253160980321922
  0.6386576890785692  0.2766974344305265  0.4863509297034836
  0.0125515537454818  0.1092694348451098  0.5038457146002597
  0.4385135966668722  0.8872229153882863  0.5231468127239005
  0.2699001145205123  0.4985999310989755  0.5197851051078917
  0.4837751426432706  0.4498539282809829  0.2408363949074913
  0.4547261138433019  0.4264912115193454  0.0432704023073949
 
  0.00000000E+00  0.00000000E+00  0.00000000E+00
  0.00000000E+00  0.00000000E+00  0.00000000E+00
  0.00000000E+00  0.00000000E+00  0.00000000E+00
  0.00000000E+00  0.00000000E+00  0.00000000E+00
  0.00000000E+00  0.00000000E+00  0.00000000E+00
  0.00000000E+00  0.00000000E+00  0.00000000E+00
  0.00000000E+00  0.00000000E+00  0.00000000E+00
  0.00000000E+00  0.00000000E+00  0.00000000E+00
  0.00000000E+00  0.00000000E+00  0.00000000E+00
  0.00000000E+00  0.00000000E+00  0.00000000E+00
  0.00000000E+00  0.00000000E+00  0.00000000E+00
  0.00000000E+00  0.00000000E+00  0.00000000E+00
  0.00000000E+00  0.00000000E+00  0.00000000E+00
  0.00000000E+00  0.00000000E+00  0.00000000E+00
  0.00000000E+00  0.00000000E+00  0.00000000E+00
  0.00000000E+00  0.00000000E+00  0.00000000E+00
  0.00000000E+00  0.00000000E+00  0.00000000E+00
  0.00000000E+00  0.00000000E+00  0.00000000E+00
  0.00000000E+00  0.00000000E+00  0.00000000E+00
  0.00000000E+00  0.00000000E+00  0.00000000E+00
  0.00000000E+00  0.00000000E+00  0.00000000E+00
  0.00000000E+00  0.00000000E+00  0.00000000E+00
  0.00000000E+00  0.00000000E+00  0.00000000E+00
  0.00000000E+00  0.00000000E+00  0.00000000E+00
  0.00000000E+00  0.00000000E+00  0.00000000E+00
  0.00000000E+00  0.00000000E+00  0.00000000E+00
  0.00000000E+00  0.00000000E+00  0.00000000E+00
  0.00000000E+00  0.00000000E+00  0.00000000E+00
  0.00000000E+00  0.00000000E+00  0.00000000E+00
  0.00000000E+00  0.00000000E+00  0.00000000E+00
  0.00000000E+00  0.00000000E+00  0.00000000E+00
  0.00000000E+00  0.00000000E+00  0.00000000E+00
  0.00000000E+00  0.00000000E+00  0.00000000E+00
  0.00000000E+00  0.00000000E+00  0.00000000E+00
  0.00000000E+00  0.00000000E+00  0.00000000E+00
  0.00000000E+00  0.00000000E+00  0.00000000E+00
  0.00000000E+00  0.00000000E+00  0.00000000E+00
  0.00000000E+00  0.00000000E+00  0.00000000E+00
  0.00000000E+00  0.00000000E+00  0.00000000E+00
  0.00000000E+00  0.00000000E+00  0.00000000E+00
  0.00000000E+00  0.00000000E+00  0.00000000E+00
  0.00000000E+00  0.00000000E+00  0.00000000E+00
  0.00000000E+00  0.00000000E+00  0.00000000E+00
  0.00000000E+00  0.00000000E+00  0.00000000E+00
  0.00000000E+00  0.00000000E+00  0.00000000E+00
  0.00000000E+00  0.00000000E+00  0.00000000E+00
  0.00000000E+00  0.00000000E+00  0.00000000E+00
  0.00000000E+00  0.00000000E+00  0.00000000E+00
  0.00000000E+00  0.00000000E+00  0.00000000E+00
  0.00000000E+00  0.00000000E+00  0.00000000E+00
  0.00000000E+00  0.00000000E+00  0.00000000E+00
  0.00000000E+00  0.00000000E+00  0.00000000E+00
  0.00000000E+00  0.00000000E+00  0.00000000E+00
  0.00000000E+00  0.00000000E+00  0.00000000E+00
  0.00000000E+00  0.00000000E+00  0.00000000E+00
  0.00000000E+00  0.00000000E+00  0.00000000E+00
  0.00000000E+00  0.00000000E+00  0.00000000E+00
  0.00000000E+00  0.00000000E+00  0.00000000E+00
  0.00000000E+00  0.00000000E+00  0.00000000E+00
  0.00000000E+00  0.00000000E+00  0.00000000E+00
  0.00000000E+00  0.00000000E+00  0.00000000E+00
  0.00000000E+00  0.00000000E+00  0.00000000E+00
  0.00000000E+00  0.00000000E+00  0.00000000E+00
  0.00000000E+00  0.00000000E+00  0.00000000E+00
  0.00000000E+00  0.00000000E+00  0.00000000E+00
  0.00000000E+00  0.00000000E+00  0.00000000E+00
  0.00000000E+00  0.00000000E+00  0.00000000E+00
  0.00000000E+00  0.00000000E+00  0.00000000E+00
  0.00000000E+00  0.00000000E+00  0.00000000E+00
  0.00000000E+00  0.00000000E+00  0.00000000E+00
  0.00000000E+00  0.00000000E+00  0.00000000E+00
  0.00000000E+00  0.00000000E+00  0.00000000E+00
  0.00000000E+00  0.00000000E+00  0.00000000E+00
  0.00000000E+00  0.00000000E+00  0.00000000E+00
  0.00000000E+00  0.00000000E+00  0.00000000E+00
  0.00000000E+00  0.00000000E+00  0.00000000E+00
  0.00000000E+00  0.00000000E+00  0.00000000E+00
  0.00000000E+00  0.00000000E+00  0.00000000E+00
  0.00000000E+00  0.00000000E+00  0.00000000E+00
  0.00000000E+00  0.00000000E+00  0.00000000E+00
  0.00000000E+00  0.00000000E+00  0.00000000E+00
  0.00000000E+00  0.00000000E+00  0.00000000E+00
  0.00000000E+00  0.00000000E+00  0.00000000E+00
  0.00000000E+00  0.00000000E+00  0.00000000E+00
  0.00000000E+00  0.00000000E+00  0.00000000E+00
  0.00000000E+00  0.00000000E+00  0.00000000E+00
  0.00000000E+00  0.00000000E+00  0.00000000E+00
  0.00000000E+00  0.00000000E+00  0.00000000E+00
  0.00000000E+00  0.00000000E+00  0.00000000E+00
  0.00000000E+00  0.00000000E+00  0.00000000E+00
  0.00000000E+00  0.00000000E+00  0.00000000E+00
  0.00000000E+00  0.00000000E+00  0.00000000E+00
  0.00000000E+00  0.00000000E+00  0.00000000E+00
  0.00000000E+00  0.00000000E+00  0.00000000E+00
  0.00000000E+00  0.00000000E+00  0.00000000E+00
  0.00000000E+00  0.00000000E+00  0.00000000E+00
  0.00000000E+00  0.00000000E+00  0.00000000E+00
  0.00000000E+00  0.00000000E+00  0.00000000E+00
  0.00000000E+00  0.00000000E+00  0.00000000E+00
  0.00000000E+00  0.00000000E+00  0.00000000E+00
  0.00000000E+00  0.00000000E+00  0.00000000E+00
  0.00000000E+00  0.00000000E+00  0.00000000E+00
  0.00000000E+00  0.00000000E+00  0.00000000E+00
  0.00000000E+00  0.00000000E+00  0.00000000E+00
  0.00000000E+00  0.00000000E+00  0.00000000E+00
  0.00000000E+00  0.00000000E+00  0.00000000E+00
  0.00000000E+00  0.00000000E+00  0.00000000E+00
  0.00000000E+00  0.00000000E+00  0.00000000E+00
  0.00000000E+00  0.00000000E+00  0.00000000E+00
  0.00000000E+00  0.00000000E+00  0.00000000E+00
  0.00000000E+00  0.00000000E+00  0.00000000E+00
  0.00000000E+00  0.00000000E+00  0.00000000E+00
  0.00000000E+00  0.00000000E+00  0.00000000E+00
  0.00000000E+00  0.00000000E+00  0.00000000E+00
  0.00000000E+00  0.00000000E+00  0.00000000E+00
  0.00000000E+00  0.00000000E+00  0.00000000E+00
  0.00000000E+00  0.00000000E+00  0.00000000E+00
  0.00000000E+00  0.00000000E+00  0.00000000E+00
  0.00000000E+00  0.00000000E+00  0.00000000E+00
  0.00000000E+00  0.00000000E+00  0.00000000E+00
  0.00000000E+00  0.00000000E+00  0.00000000E+00
  0.00000000E+00  0.00000000E+00  0.00000000E+00
  0.00000000E+00  0.00000000E+00  0.00000000E+00
  0.00000000E+00  0.00000000E+00  0.00000000E+00
  0.00000000E+00  0.00000000E+00  0.00000000E+00
  0.00000000E+00  0.00000000E+00  0.00000000E+00
  0.00000000E+00  0.00000000E+00  0.00000000E+00
  0.00000000E+00  0.00000000E+00  0.00000000E+00
  0.00000000E+00  0.00000000E+00  0.00000000E+00
  0.00000000E+00  0.00000000E+00  0.00000000E+00
  0.00000000E+00  0.00000000E+00  0.00000000E+00
  0.00000000E+00  0.00000000E+00  0.00000000E+00
  0.00000000E+00  0.00000000E+00  0.00000000E+00
  0.00000000E+00  0.00000000E+00  0.00000000E+00
  0.00000000E+00  0.00000000E+00  0.00000000E+00
  0.00000000E+00  0.00000000E+00  0.00000000E+00
  0.00000000E+00  0.00000000E+00  0.00000000E+00
  0.00000000E+00  0.00000000E+00  0.00000000E+00
  0.00000000E+00  0.00000000E+00  0.00000000E+00
  0.00000000E+00  0.00000000E+00  0.00000000E+00
  0.00000000E+00  0.00000000E+00  0.00000000E+00
  0.00000000E+00  0.00000000E+00  0.00000000E+00
  0.00000000E+00  0.00000000E+00  0.00000000E+00
  0.00000000E+00  0.00000000E+00  0.00000000E+00
  0.00000000E+00  0.00000000E+00  0.00000000E+00
  0.00000000E+00  0.00000000E+00  0.00000000E+00
  0.00000000E+00  0.00000000E+00  0.00000000E+00
  0.00000000E+00  0.00000000E+00  0.00000000E+00
  0.00000000E+00  0.00000000E+00  0.00000000E+00
  0.00000000E+00  0.00000000E+00  0.00000000E+00
  0.00000000E+00  0.00000000E+00  0.00000000E+00
  0.00000000E+00  0.00000000E+00  0.00000000E+00
  0.00000000E+00  0.00000000E+00  0.00000000E+00
  0.00000000E+00  0.00000000E+00  0.00000000E+00
  0.00000000E+00  0.00000000E+00  0.00000000E+00
  0.00000000E+00  0.00000000E+00  0.00000000E+00
  0.00000000E+00  0.00000000E+00  0.00000000E+00
  0.00000000E+00  0.00000000E+00  0.00000000E+00
  0.00000000E+00  0.00000000E+00  0.00000000E+00
  0.00000000E+00  0.00000000E+00  0.00000000E+00
  0.00000000E+00  0.00000000E+00  0.00000000E+00
  0.00000000E+00  0.00000000E+00  0.00000000E+00
  0.00000000E+00  0.00000000E+00  0.00000000E+00
  0.00000000E+00  0.00000000E+00  0.00000000E+00
  0.00000000E+00  0.00000000E+00  0.00000000E+00
  0.00000000E+00  0.00000000E+00  0.00000000E+00
  0.00000000E+00  0.00000000E+00  0.00000000E+00
  0.00000000E+00  0.00000000E+00  0.00000000E+00
  0.00000000E+00  0.00000000E+00  0.00000000E+00
  0.00000000E+00  0.00000000E+00  0.00000000E+00
  0.00000000E+00  0.00000000E+00  0.00000000E+00
  0.00000000E+00  0.00000000E+00  0.00000000E+00
  0.00000000E+00  0.00000000E+00  0.00000000E+00
  0.00000000E+00  0.00000000E+00  0.00000000E+00
  0.00000000E+00  0.00000000E+00  0.00000000E+00
  0.00000000E+00  0.00000000E+00  0.00000000E+00
  0.00000000E+00  0.00000000E+00  0.00000000E+00
  0.00000000E+00  0.00000000E+00  0.00000000E+00
  0.00000000E+00  0.00000000E+00  0.00000000E+00
  0.00000000E+00  0.00000000E+00  0.00000000E+00
  0.00000000E+00  0.00000000E+00  0.00000000E+00
  0.00000000E+00  0.00000000E+00  0.00000000E+00
  0.00000000E+00  0.00000000E+00  0.00000000E+00
  0.00000000E+00  0.00000000E+00  0.00000000E+00
  0.00000000E+00  0.00000000E+00  0.00000000E+00
  0.00000000E+00  0.00000000E+00  0.00000000E+00
  0.00000000E+00  0.00000000E+00  0.00000000E+00
  0.00000000E+00  0.00000000E+00  0.00000000E+00
  0.00000000E+00  0.00000000E+00  0.00000000E+00
  0.00000000E+00  0.00000000E+00  0.00000000E+00
  0.00000000E+00  0.00000000E+00  0.00000000E+00
  0.00000000E+00  0.00000000E+00  0.00000000E+00
  0.00000000E+00  0.00000000E+00  0.00000000E+00
  0.00000000E+00  0.00000000E+00  0.00000000E+00
  0.00000000E+00  0.00000000E+00  0.00000000E+00
  0.00000000E+00  0.00000000E+00  0.00000000E+00
  0.00000000E+00  0.00000000E+00  0.00000000E+00
  0.00000000E+00  0.00000000E+00  0.00000000E+00
  0.00000000E+00  0.00000000E+00  0.00000000E+00
  0.00000000E+00  0.00000000E+00  0.00000000E+00
  0.00000000E+00  0.00000000E+00  0.00000000E+00
  0.00000000E+00  0.00000000E+00  0.00000000E+00
  0.00000000E+00  0.00000000E+00  0.00000000E+00
  0.00000000E+00  0.00000000E+00  0.00000000E+00
  0.00000000E+00  0.00000000E+00  0.00000000E+00
  0.00000000E+00  0.00000000E+00  0.00000000E+00
  0.00000000E+00  0.00000000E+00  0.00000000E+00
  0.00000000E+00  0.00000000E+00  0.00000000E+00
  0.00000000E+00  0.00000000E+00  0.00000000E+00
  0.00000000E+00  0.00000000E+00  0.00000000E+00
  0.00000000E+00  0.00000000E+00  0.00000000E+00
  0.00000000E+00  0.00000000E+00  0.00000000E+00
  0.00000000E+00  0.00000000E+00  0.00000000E+00
  0.00000000E+00  0.00000000E+00  0.00000000E+00
  0.00000000E+00  0.00000000E+00  0.00000000E+00
  0.00000000E+00  0.00000000E+00  0.00000000E+00
  0.00000000E+00  0.00000000E+00  0.00000000E+00
  0.00000000E+00  0.00000000E+00  0.00000000E+00
  0.00000000E+00  0.00000000E+00  0.00000000E+00
  0.00000000E+00  0.00000000E+00  0.00000000E+00
  0.00000000E+00  0.00000000E+00  0.00000000E+00
  0.00000000E+00  0.00000000E+00  0.00000000E+00
  0.00000000E+00  0.00000000E+00  0.00000000E+00
  0.00000000E+00  0.00000000E+00  0.00000000E+00
