BoronNitride                            
   1.0000000000000000     
    17.3520000000000003    0.0000000000000000    0.0000000000000000
     0.0000000000000000   15.0272728064999992    0.0000000000000000
     0.0000000000000000    0.0000000000000000   10.6393173196999999
   B    N 
    48    48
Direct
  0.9958981622455575  0.0032862576986693  0.0199946105433591
  0.9959103434299766  0.1699398496840619  0.0199893849977576
  0.9958879501864015  0.3366050806804798  0.0200322028171597
  0.9959008345218666  0.5032867830646676  0.0200205618145820
  0.9959079082817255  0.6699320934435045  0.0199545533082824
  0.9958864935677997  0.8366029185664053  0.0199628330938048
  0.1208794772808935  0.0866891196473137  0.0199423521394846
  0.1208959809920210  0.2533534913931323  0.0199470839942274
  0.1208925222475892  0.4200116581749606  0.0199963100539250
  0.1208816400142253  0.5866894640117079  0.0199383128338610
  0.1208958238367896  0.7533517071486284  0.0199335387472854
  0.1208906652982347  0.9200104153654142  0.0199849580154219
  0.2458907842280464  0.0033567009227835  0.0199269973310587
  0.2458923040180538  0.1700155700743121  0.0199633131175109
  0.2458704179396103  0.3366961711542750  0.0199102267186395
  0.2458943924836403  0.5033574354462252  0.0199311146134246
  0.2458961613699386  0.6700141033685373  0.0199690846976265
  0.2458702774667658  0.8366953088532001  0.0199123161297680
  0.3708672870917724  0.0867107035187260  0.0199177763496593
  0.3708914145573853  0.2533741452784376  0.0199352178804252
  0.3708909487911458  0.4200282717516681  0.0199776490543208
  0.3708792493715563  0.5867076530732351  0.0199487199329652
  0.3708922373055122  0.7533733499460070  0.0199428257187614
  0.3708899022992831  0.9200298706685249  0.0199681312428268
  0.4958914688953986  0.0033423526917604  0.0199486671162576
  0.4958975523147388  0.1699939368018012  0.0200191798337286
  0.4958826812956360  0.3366745401575986  0.0199522525369018
  0.4958975095242636  0.5033275429324601  0.0199850860575800
  0.4958991684468920  0.6699921241709029  0.0200361144872667
  0.4958793985223511  0.8366776454006501  0.0199531788882553
  0.6208900099807679  0.0866346550323459  0.0200294153480521
  0.6208994613023584  0.2533045179344652  0.0200286862609499
  0.6209158614470091  0.4199553925119418  0.0200377784740283
  0.6208836844411696  0.5866223640681497  0.0200449881234925
  0.6208955721436865  0.7533067092861701  0.0200356332230891
  0.6208969332482950  0.9199746383397142  0.0200448325835275
  0.7459034269793809  0.0032632639308177  0.0200215831477463
  0.7459156367190312  0.1699121166987562  0.0200176577956435
  0.7458931547433335  0.3365837029874065  0.0200442156492153
  0.7459048121118730  0.5032645334409801  0.0200399778660564
  0.7459112283730421  0.6699113917228454  0.0200189664762933
  0.7458838042031768  0.8365872687172731  0.0200288053889131
  0.8708889508976173  0.0865996775169300  0.0200252001003148
  0.8709026987423888  0.2532814187518044  0.0200367916440940
  0.8709155610488123  0.4199353302615680  0.0200519720519707
  0.8708877499244461  0.5866018395169753  0.0200317580283354
  0.8708995671113012  0.7532800946118794  0.0200092167141902
  0.8709110658277784  0.9199253464693365  0.0199943108415045
  0.0792148299087350  0.0033013186438322  0.0200421271509365
  0.0792205379270988  0.1700509995985404  0.0199450750236906
  0.0792221548809209  0.3366918913636474  0.0200335663877935
  0.0792168777517510  0.5033022061426565  0.0200485152386521
  0.0792196515899225  0.6700489629296784  0.0199273030643995
  0.0792210423928918  0.8366900323070325  0.0200036151977688
  0.2042167111855751  0.0866958805180827  0.0199614325336171
  0.2042121851212965  0.2533018531464852  0.0199797879307048
  0.2042106452389379  0.4200547934121351  0.0199040109843740
  0.2042192091901262  0.5866956510489520  0.0199636687259511
  0.2042132130790770  0.7532999132622429  0.0199816617643354
  0.2042086891330053  0.9200535242833489  0.0199049152275104
  0.3292081216205084  0.0033276542957076  0.0200040332804187
  0.3292088874949292  0.1700810122853020  0.0199352276214879
  0.3292117386281716  0.3367228466939742  0.0199796272222790
  0.3292126474658011  0.5033273730472000  0.0200187348968506
  0.3292139995153383  0.6700776776940581  0.0199500415213049
  0.3292118470857109  0.8367227364209303  0.0199821006315237
  0.4542113500784598  0.0866856849614087  0.0199655710887801
  0.4542144471759171  0.2532897543063919  0.0200029970906815
  0.4542122422889317  0.4200362977290989  0.0199349294592191
  0.4542204256142224  0.5866779009856099  0.0200008711384784
  0.4542146931132560  0.7532892172030979  0.0200098903385066
  0.4542110219187951  0.9200430142591587  0.0199175261227540
  0.5792134109967201  0.0032754734623275  0.0200606414508869
  0.5792206588562914  0.1700135941611337  0.0200843612057316
  0.5792244513597631  0.3366630022300100  0.0200291917469393
  0.5792200452588542  0.5032579174469348  0.0200732533881576
  0.5792205611593521  0.6700102246345530  0.0200953862930094
  0.5792195153278848  0.8366691451740259  0.0200405140281322
  0.7042285807379149  0.0866081679993574  0.0200203535865175
  0.7042248269109286  0.2532094465300090  0.0200466935420691
  0.7042322477105265  0.4199579801337323  0.0200804510588246
  0.7042250779870047  0.5866052768117530  0.0200289081457225
  0.7042203145857376  0.7532099494939523  0.0200459185988816
  0.7042192830101974  0.9199632369581053  0.0200590575242679
  0.8292250500866747  0.0032276461769222  0.0200530811182351
  0.8292302709148500  0.1699784745599836  0.0200724260700059
  0.8292309905489376  0.3366293976323935  0.0200676616725363
  0.8292247018228164  0.5032320725754550  0.0200834096917829
  0.8292268896551219  0.6699780372775250  0.0200674552130195
  0.8292236292559004  0.8366260227128213  0.0200352807659777
  0.9542265578242790  0.0866226178182992  0.0200143665074048
  0.9542229894795182  0.2532246260767124  0.0200463677034686
  0.9542298559183319  0.4199728298083776  0.0200682645575810
  0.9542251307112070  0.5866195565783643  0.0200081318792351
  0.9542209503167577  0.7532210110357194  0.0199985135086332
  0.9542263472885343  0.9199700536071562  0.0199867373177166

  0.00000000E+00  0.00000000E+00  0.00000000E+00
  0.00000000E+00  0.00000000E+00  0.00000000E+00
  0.00000000E+00  0.00000000E+00  0.00000000E+00
  0.00000000E+00  0.00000000E+00  0.00000000E+00
  0.00000000E+00  0.00000000E+00  0.00000000E+00
  0.00000000E+00  0.00000000E+00  0.00000000E+00
  0.00000000E+00  0.00000000E+00  0.00000000E+00
  0.00000000E+00  0.00000000E+00  0.00000000E+00
  0.00000000E+00  0.00000000E+00  0.00000000E+00
  0.00000000E+00  0.00000000E+00  0.00000000E+00
  0.00000000E+00  0.00000000E+00  0.00000000E+00
  0.00000000E+00  0.00000000E+00  0.00000000E+00
  0.00000000E+00  0.00000000E+00  0.00000000E+00
  0.00000000E+00  0.00000000E+00  0.00000000E+00
  0.00000000E+00  0.00000000E+00  0.00000000E+00
  0.00000000E+00  0.00000000E+00  0.00000000E+00
  0.00000000E+00  0.00000000E+00  0.00000000E+00
  0.00000000E+00  0.00000000E+00  0.00000000E+00
  0.00000000E+00  0.00000000E+00  0.00000000E+00
  0.00000000E+00  0.00000000E+00  0.00000000E+00
  0.00000000E+00  0.00000000E+00  0.00000000E+00
  0.00000000E+00  0.00000000E+00  0.00000000E+00
  0.00000000E+00  0.00000000E+00  0.00000000E+00
  0.00000000E+00  0.00000000E+00  0.00000000E+00
  0.00000000E+00  0.00000000E+00  0.00000000E+00
  0.00000000E+00  0.00000000E+00  0.00000000E+00
  0.00000000E+00  0.00000000E+00  0.00000000E+00
  0.00000000E+00  0.00000000E+00  0.00000000E+00
  0.00000000E+00  0.00000000E+00  0.00000000E+00
  0.00000000E+00  0.00000000E+00  0.00000000E+00
  0.00000000E+00  0.00000000E+00  0.00000000E+00
  0.00000000E+00  0.00000000E+00  0.00000000E+00
  0.00000000E+00  0.00000000E+00  0.00000000E+00
  0.00000000E+00  0.00000000E+00  0.00000000E+00
  0.00000000E+00  0.00000000E+00  0.00000000E+00
  0.00000000E+00  0.00000000E+00  0.00000000E+00
  0.00000000E+00  0.00000000E+00  0.00000000E+00
  0.00000000E+00  0.00000000E+00  0.00000000E+00
  0.00000000E+00  0.00000000E+00  0.00000000E+00
  0.00000000E+00  0.00000000E+00  0.00000000E+00
  0.00000000E+00  0.00000000E+00  0.00000000E+00
  0.00000000E+00  0.00000000E+00  0.00000000E+00
  0.00000000E+00  0.00000000E+00  0.00000000E+00
  0.00000000E+00  0.00000000E+00  0.00000000E+00
  0.00000000E+00  0.00000000E+00  0.00000000E+00
  0.00000000E+00  0.00000000E+00  0.00000000E+00
  0.00000000E+00  0.00000000E+00  0.00000000E+00
  0.00000000E+00  0.00000000E+00  0.00000000E+00
  0.00000000E+00  0.00000000E+00  0.00000000E+00
  0.00000000E+00  0.00000000E+00  0.00000000E+00
  0.00000000E+00  0.00000000E+00  0.00000000E+00
  0.00000000E+00  0.00000000E+00  0.00000000E+00
  0.00000000E+00  0.00000000E+00  0.00000000E+00
  0.00000000E+00  0.00000000E+00  0.00000000E+00
  0.00000000E+00  0.00000000E+00  0.00000000E+00
  0.00000000E+00  0.00000000E+00  0.00000000E+00
  0.00000000E+00  0.00000000E+00  0.00000000E+00
  0.00000000E+00  0.00000000E+00  0.00000000E+00
  0.00000000E+00  0.00000000E+00  0.00000000E+00
  0.00000000E+00  0.00000000E+00  0.00000000E+00
  0.00000000E+00  0.00000000E+00  0.00000000E+00
  0.00000000E+00  0.00000000E+00  0.00000000E+00
  0.00000000E+00  0.00000000E+00  0.00000000E+00
  0.00000000E+00  0.00000000E+00  0.00000000E+00
  0.00000000E+00  0.00000000E+00  0.00000000E+00
  0.00000000E+00  0.00000000E+00  0.00000000E+00
  0.00000000E+00  0.00000000E+00  0.00000000E+00
  0.00000000E+00  0.00000000E+00  0.00000000E+00
  0.00000000E+00  0.00000000E+00  0.00000000E+00
  0.00000000E+00  0.00000000E+00  0.00000000E+00
  0.00000000E+00  0.00000000E+00  0.00000000E+00
  0.00000000E+00  0.00000000E+00  0.00000000E+00
  0.00000000E+00  0.00000000E+00  0.00000000E+00
  0.00000000E+00  0.00000000E+00  0.00000000E+00
  0.00000000E+00  0.00000000E+00  0.00000000E+00
  0.00000000E+00  0.00000000E+00  0.00000000E+00
  0.00000000E+00  0.00000000E+00  0.00000000E+00
  0.00000000E+00  0.00000000E+00  0.00000000E+00
  0.00000000E+00  0.00000000E+00  0.00000000E+00
  0.00000000E+00  0.00000000E+00  0.00000000E+00
  0.00000000E+00  0.00000000E+00  0.00000000E+00
  0.00000000E+00  0.00000000E+00  0.00000000E+00
  0.00000000E+00  0.00000000E+00  0.00000000E+00
  0.00000000E+00  0.00000000E+00  0.00000000E+00
  0.00000000E+00  0.00000000E+00  0.00000000E+00
  0.00000000E+00  0.00000000E+00  0.00000000E+00
  0.00000000E+00  0.00000000E+00  0.00000000E+00
  0.00000000E+00  0.00000000E+00  0.00000000E+00
  0.00000000E+00  0.00000000E+00  0.00000000E+00
  0.00000000E+00  0.00000000E+00  0.00000000E+00
  0.00000000E+00  0.00000000E+00  0.00000000E+00
  0.00000000E+00  0.00000000E+00  0.00000000E+00
  0.00000000E+00  0.00000000E+00  0.00000000E+00
  0.00000000E+00  0.00000000E+00  0.00000000E+00
  0.00000000E+00  0.00000000E+00  0.00000000E+00
  0.00000000E+00  0.00000000E+00  0.00000000E+00
